*Heading
** Job name: HartlCase2 Model name: Model-1
** Generated by: Abaqus/CAE 2025
*Preprint, echo=NO, model=NO, history=NO, contact=NO
**
** PARTS
**
*Part, name=Cube
*Node
      1,           1.,           1.,           1.
      2,           1.,           0.,           1.
      3,           1.,           1.,           0.
      4,           1.,           0.,           0.
      5,           0.,           1.,           1.
      6,           0.,           0.,           1.
      7,           0.,           1.,           0.
      8,           0.,           0.,           0.
*Element, type=C3D8
1, 5, 6, 8, 7, 1, 2, 4, 3
*Nset, nset=whole_cube, generate
 1,  8,  1
*Elset, elset=whole_cube
 1,
*Nset, nset=Edge
 2, 6
*Elset, elset=Edge
 1,
*Nset, nset=Corner
 6,
*Nset, nset=FixedFace, generate
 2,  8,  2
*Elset, elset=FixedFace
 1,
*Elset, elset=_Bottom_S5, internal
 1,
*Surface, type=ELEMENT, name=Bottom
_Bottom_S5, S5
*Elset, elset=_Top_S3, internal
 1,
*Surface, type=ELEMENT, name=Top
_Top_S3, S3
** Section: CubeSection
*Solid Section, elset=whole_cube, material=HartlSMA
,
*End Part
**  
**
** ASSEMBLY
**
*Assembly, name=Assembly
**  
*Instance, name=Cube-1, part=Cube
*End Instance
**  
*Elset, elset=_TopLoadFace_S6, internal, instance=Cube-1
 1,
*Surface, type=ELEMENT, name=TopLoadFace
_TopLoadFace_S6, S6
*End Assembly
** 
** MATERIALS
** 
*Material, name=HartlSMA
*Conductivity
18.,
*Depvar
    100,
*User Material, constants=40
1.,      0.,   1e-08,      0.,      0.,      3.,      1.,      0.
  63000.,  90000.,    0.33,    0.33,      0.,      0.,      0.,      0.
  296.15,  259.15,  295.15,  322.15,    11.4,     16.,    200.,      0.
      0.,  0.0123,      0., 0.00752,      0.,      0.,      0.,      1.
     0.5,     0.5,     0.5,     0.5,      0.,      0.,      0.,      0.
*Material, name=SMA
*Conductivity
18.,
*Density
6500.,
*Depvar
     31,
*Specific Heat
470.,
*User Material, constants=38
6500.,    6.62e+10,    2.56e+10,        0.33,        300.,          0.,          0.,     1.5e+08
 9.01772e+06, 8.34255e+06,        470.,        470.,        285.,        310.,        315.,        330.
   0.0482024,    1.29e-08,       5e+07,          0.,          0.,          0.,     2.5e+07,       5e+07
        0.55,        0.55,        0.55,        0.55,       1e-06,       1e-09,      0.9999,          6.
          0.,          0.,          1.,          0.,          0.,          0.
*Material, name=aluminum
*Conductivity
167.,
*Density
2700.,
*Elastic
 6.9e+10, 0.33
*Expansion, zero=20.
 2.36e-05,
*Specific Heat
896.,
** 
** BOUNDARY CONDITIONS
** 
** Name: Corner Type: Displacement/Rotation
*Boundary
Cube-1.Corner, 1, 1
Cube-1.Corner, 2, 2
Cube-1.Corner, 3, 3
** Name: Edge Type: Displacement/Rotation
*Boundary
Cube-1.Edge, 2, 2
Cube-1.Edge, 3, 3
** Name: Fixedface Type: Displacement/Rotation
*Boundary
Cube-1.FixedFace, 2, 2
** 
** PREDEFINED FIELDS
** 
** Name: TempField   Type: Temperature
*Initial Conditions, type=TEMPERATURE
Cube-1.whole_cube, 365.
** ----------------------------------------------------------------
** 
** STEP: Load
** 
*Step, name=Load, nlgeom=NO, inc=10000000
*Static
0.01, 1., 1e-05, 0.01
** 
** LOADS
** 
** Name: Load   Type: Pressure
*Dsload
TopLoadFace, P, -300.
** 
** OUTPUT REQUESTS
** 
*Restart, write, frequency=0
** 
** FIELD OUTPUT: F-Output-1
** 
*Output, field
*Node Output
CF, U
*Element Output, directions=YES
E, PE, S, SDV, TEMP, PEEQ
** 
** HISTORY OUTPUT: H-Output-1
** 
*Output, history, variable=PRESELECT
*End Step
** ----------------------------------------------------------------
** 
** STEP: Cool
** 
*Step, name=Cool, nlgeom=NO, inc=10000000
*Static
0.01, 1., 1e-05, 0.01
** 
** PREDEFINED FIELDS
** 
** Name: TempField   Type: Temperature
*Temperature
Cube-1.whole_cube, 265.
** 
** OUTPUT REQUESTS
** 
*Restart, write, frequency=0
** 
** FIELD OUTPUT: F-Output-1
** 
*Output, field
*Node Output
CF, U
*Element Output, directions=YES
E, PE, S, SDV, TEMP, PEEQ
** 
** HISTORY OUTPUT: H-Output-1
** 
*Output, history, variable=PRESELECT
*End Step
** ----------------------------------------------------------------
** 
** STEP: Reheat
** 
*Step, name=Reheat, nlgeom=NO, inc=10000000
*Static
0.01, 1., 1e-05, 0.01
** 
** PREDEFINED FIELDS
** 
** Name: TempField   Type: Temperature
*Temperature
Cube-1.whole_cube, 365.
** 
** OUTPUT REQUESTS
** 
*Restart, write, frequency=0
** 
** FIELD OUTPUT: F-Output-1
** 
*Output, field
*Node Output
CF, U
*Element Output, directions=YES
E, PE, S, SDV, TEMP, PEEQ
** 
** HISTORY OUTPUT: H-Output-1
** 
*Output, history, variable=PRESELECT
*End Step
** ----------------------------------------------------------------
** 
** STEP: Unload
** 
*Step, name=Unload, nlgeom=NO, inc=10000000
*Static
0.01, 1., 1e-05, 0.01
** 
** LOADS
** 
** Name: Load   Type: Pressure
*Dsload
TopLoadFace, P, 0.
** 
** OUTPUT REQUESTS
** 
*Restart, write, frequency=0
** 
** FIELD OUTPUT: F-Output-1
** 
*Output, field
*Node Output
CF, U
*Element Output, directions=YES
E, PE, S, SDV, TEMP, PEEQ
** 
** HISTORY OUTPUT: H-Output-1
** 
*Output, history, variable=PRESELECT
*End Step
