*Heading
** Job name: Job-1 Model name: Model-1
** Generated by: Abaqus/CAE 2025
*Preprint, echo=NO, model=NO, history=NO, contact=NO
**
** PARTS
**
*Part, name=Part-1
*Node
      1,           0.,           0.
      2, 0.0666666701,           0.
      3,   0.13333334,           0.
      4,  0.200000003,           0.
      5,  0.266666681,           0.
      6,  0.333333343,           0.
      7,  0.400000006,           0.
      8,  0.466666669,           0.
      9,  0.533333361,           0.
     10,  0.600000024,           0.
     11,  0.666666687,           0.
     12,  0.733333349,           0.
     13,  0.800000012,           0.
     14,  0.866666675,           0.
     15,  0.933333337,           0.
     16,           1.,           0.
     17,   1.06666672,           0.
     18,   1.13333333,           0.
     19,   1.20000005,           0.
     20,   1.26666665,           0.
     21,   1.33333337,           0.
     22,   1.39999998,           0.
     23,    1.4666667,           0.
     24,    1.5333333,           0.
     25,   1.60000002,           0.
     26,   1.66666663,           0.
     27,   1.73333335,           0.
     28,   1.79999995,           0.
     29,   1.86666667,           0.
     30,   1.93333328,           0.
     31,           2.,           0.
     32,           0., 0.0666666701
     33, 0.0666666701, 0.0666666701
     34,   0.13333334, 0.0666666701
     35,  0.200000003, 0.0666666701
     36,  0.266666681, 0.0666666701
     37,  0.333333343, 0.0666666701
     38,  0.400000006, 0.0666666701
     39,  0.466666669, 0.0666666701
     40,  0.533333361, 0.0666666701
     41,  0.600000024, 0.0666666701
     42,  0.666666687, 0.0666666701
     43,  0.733333349, 0.0666666701
     44,  0.800000012, 0.0666666701
     45,  0.866666675, 0.0666666701
     46,  0.933333337, 0.0666666701
     47,           1., 0.0666666701
     48,   1.06666672, 0.0666666701
     49,   1.13333333, 0.0666666701
     50,   1.20000005, 0.0666666701
     51,   1.26666665, 0.0666666701
     52,   1.33333337, 0.0666666701
     53,   1.39999998, 0.0666666701
     54,    1.4666667, 0.0666666701
     55,    1.5333333, 0.0666666701
     56,   1.60000002, 0.0666666701
     57,   1.66666663, 0.0666666701
     58,   1.73333335, 0.0666666701
     59,   1.79999995, 0.0666666701
     60,   1.86666667, 0.0666666701
     61,   1.93333328, 0.0666666701
     62,           2., 0.0666666701
     63,           0.,   0.13333334
     64, 0.0666666701,   0.13333334
     65,   0.13333334,   0.13333334
     66,  0.200000003,   0.13333334
     67,  0.266666681,   0.13333334
     68,  0.333333343,   0.13333334
     69,  0.400000006,   0.13333334
     70,  0.466666669,   0.13333334
     71,  0.533333361,   0.13333334
     72,  0.600000024,   0.13333334
     73,  0.666666687,   0.13333334
     74,  0.733333349,   0.13333334
     75,  0.800000012,   0.13333334
     76,  0.866666675,   0.13333334
     77,  0.933333337,   0.13333334
     78,           1.,   0.13333334
     79,   1.06666672,   0.13333334
     80,   1.13333333,   0.13333334
     81,   1.20000005,   0.13333334
     82,   1.26666665,   0.13333334
     83,   1.33333337,   0.13333334
     84,   1.39999998,   0.13333334
     85,    1.4666667,   0.13333334
     86,    1.5333333,   0.13333334
     87,   1.60000002,   0.13333334
     88,   1.66666663,   0.13333334
     89,   1.73333335,   0.13333334
     90,   1.79999995,   0.13333334
     91,   1.86666667,   0.13333334
     92,   1.93333328,   0.13333334
     93,           2.,   0.13333334
     94,           0.,  0.200000003
     95, 0.0666666701,  0.200000003
     96,   0.13333334,  0.200000003
     97,  0.200000003,  0.200000003
     98,  0.266666681,  0.200000003
     99,  0.333333343,  0.200000003
    100,  0.400000006,  0.200000003
    101,  0.466666669,  0.200000003
    102,  0.533333361,  0.200000003
    103,  0.600000024,  0.200000003
    104,  0.666666687,  0.200000003
    105,  0.733333349,  0.200000003
    106,  0.800000012,  0.200000003
    107,  0.866666675,  0.200000003
    108,  0.933333337,  0.200000003
    109,           1.,  0.200000003
    110,   1.06666672,  0.200000003
    111,   1.13333333,  0.200000003
    112,   1.20000005,  0.200000003
    113,   1.26666665,  0.200000003
    114,   1.33333337,  0.200000003
    115,   1.39999998,  0.200000003
    116,    1.4666667,  0.200000003
    117,    1.5333333,  0.200000003
    118,   1.60000002,  0.200000003
    119,   1.66666663,  0.200000003
    120,   1.73333335,  0.200000003
    121,   1.79999995,  0.200000003
    122,   1.86666667,  0.200000003
    123,   1.93333328,  0.200000003
    124,           2.,  0.200000003
    125,           0.,  0.266666681
    126, 0.0666666701,  0.266666681
    127,   0.13333334,  0.266666681
    128,  0.200000003,  0.266666681
    129,  0.266666681,  0.266666681
    130,  0.333333343,  0.266666681
    131,  0.400000006,  0.266666681
    132,  0.466666669,  0.266666681
    133,  0.533333361,  0.266666681
    134,  0.600000024,  0.266666681
    135,  0.666666687,  0.266666681
    136,  0.733333349,  0.266666681
    137,  0.800000012,  0.266666681
    138,  0.866666675,  0.266666681
    139,  0.933333337,  0.266666681
    140,           1.,  0.266666681
    141,   1.06666672,  0.266666681
    142,   1.13333333,  0.266666681
    143,   1.20000005,  0.266666681
    144,   1.26666665,  0.266666681
    145,   1.33333337,  0.266666681
    146,   1.39999998,  0.266666681
    147,    1.4666667,  0.266666681
    148,    1.5333333,  0.266666681
    149,   1.60000002,  0.266666681
    150,   1.66666663,  0.266666681
    151,   1.73333335,  0.266666681
    152,   1.79999995,  0.266666681
    153,   1.86666667,  0.266666681
    154,   1.93333328,  0.266666681
    155,           2.,  0.266666681
    156,           0.,  0.333333343
    157, 0.0666666701,  0.333333343
    158,   0.13333334,  0.333333343
    159,  0.200000003,  0.333333343
    160,  0.266666681,  0.333333343
    161,  0.333333343,  0.333333343
    162,  0.400000006,  0.333333343
    163,  0.466666669,  0.333333343
    164,  0.533333361,  0.333333343
    165,  0.600000024,  0.333333343
    166,  0.666666687,  0.333333343
    167,  0.733333349,  0.333333343
    168,  0.800000012,  0.333333343
    169,  0.866666675,  0.333333343
    170,  0.933333337,  0.333333343
    171,           1.,  0.333333343
    172,   1.06666672,  0.333333343
    173,   1.13333333,  0.333333343
    174,   1.20000005,  0.333333343
    175,   1.26666665,  0.333333343
    176,   1.33333337,  0.333333343
    177,   1.39999998,  0.333333343
    178,    1.4666667,  0.333333343
    179,    1.5333333,  0.333333343
    180,   1.60000002,  0.333333343
    181,   1.66666663,  0.333333343
    182,   1.73333335,  0.333333343
    183,   1.79999995,  0.333333343
    184,   1.86666667,  0.333333343
    185,   1.93333328,  0.333333343
    186,           2.,  0.333333343
    187,           0.,  0.400000006
    188, 0.0666666701,  0.400000006
    189,   0.13333334,  0.400000006
    190,  0.200000003,  0.400000006
    191,  0.266666681,  0.400000006
    192,  0.333333343,  0.400000006
    193,  0.400000006,  0.400000006
    194,  0.466666669,  0.400000006
    195,  0.533333361,  0.400000006
    196,  0.600000024,  0.400000006
    197,  0.666666687,  0.400000006
    198,  0.733333349,  0.400000006
    199,  0.800000012,  0.400000006
    200,  0.866666675,  0.400000006
    201,  0.933333337,  0.400000006
    202,           1.,  0.400000006
    203,   1.06666672,  0.400000006
    204,   1.13333333,  0.400000006
    205,   1.20000005,  0.400000006
    206,   1.26666665,  0.400000006
    207,   1.33333337,  0.400000006
    208,   1.39999998,  0.400000006
    209,    1.4666667,  0.400000006
    210,    1.5333333,  0.400000006
    211,   1.60000002,  0.400000006
    212,   1.66666663,  0.400000006
    213,   1.73333335,  0.400000006
    214,   1.79999995,  0.400000006
    215,   1.86666667,  0.400000006
    216,   1.93333328,  0.400000006
    217,           2.,  0.400000006
    218,           0.,  0.466666669
    219, 0.0666666701,  0.466666669
    220,   0.13333334,  0.466666669
    221,  0.200000003,  0.466666669
    222,  0.266666681,  0.466666669
    223,  0.333333343,  0.466666669
    224,  0.400000006,  0.466666669
    225,  0.466666669,  0.466666669
    226,  0.533333361,  0.466666669
    227,  0.600000024,  0.466666669
    228,  0.666666687,  0.466666669
    229,  0.733333349,  0.466666669
    230,  0.800000012,  0.466666669
    231,  0.866666675,  0.466666669
    232,  0.933333337,  0.466666669
    233,           1.,  0.466666669
    234,   1.06666672,  0.466666669
    235,   1.13333333,  0.466666669
    236,   1.20000005,  0.466666669
    237,   1.26666665,  0.466666669
    238,   1.33333337,  0.466666669
    239,   1.39999998,  0.466666669
    240,    1.4666667,  0.466666669
    241,    1.5333333,  0.466666669
    242,   1.60000002,  0.466666669
    243,   1.66666663,  0.466666669
    244,   1.73333335,  0.466666669
    245,   1.79999995,  0.466666669
    246,   1.86666667,  0.466666669
    247,   1.93333328,  0.466666669
    248,           2.,  0.466666669
    249,           0.,  0.533333361
    250, 0.0666666701,  0.533333361
    251,   0.13333334,  0.533333361
    252,  0.200000003,  0.533333361
    253,  0.266666681,  0.533333361
    254,  0.333333343,  0.533333361
    255,  0.400000006,  0.533333361
    256,  0.466666669,  0.533333361
    257,  0.533333361,  0.533333361
    258,  0.600000024,  0.533333361
    259,  0.666666687,  0.533333361
    260,  0.733333349,  0.533333361
    261,  0.800000012,  0.533333361
    262,  0.866666675,  0.533333361
    263,  0.933333337,  0.533333361
    264,           1.,  0.533333361
    265,   1.06666672,  0.533333361
    266,   1.13333333,  0.533333361
    267,   1.20000005,  0.533333361
    268,   1.26666665,  0.533333361
    269,   1.33333337,  0.533333361
    270,   1.39999998,  0.533333361
    271,    1.4666667,  0.533333361
    272,    1.5333333,  0.533333361
    273,   1.60000002,  0.533333361
    274,   1.66666663,  0.533333361
    275,   1.73333335,  0.533333361
    276,   1.79999995,  0.533333361
    277,   1.86666667,  0.533333361
    278,   1.93333328,  0.533333361
    279,           2.,  0.533333361
    280,           0.,  0.600000024
    281, 0.0666666701,  0.600000024
    282,   0.13333334,  0.600000024
    283,  0.200000003,  0.600000024
    284,  0.266666681,  0.600000024
    285,  0.333333343,  0.600000024
    286,  0.400000006,  0.600000024
    287,  0.466666669,  0.600000024
    288,  0.533333361,  0.600000024
    289,  0.600000024,  0.600000024
    290,  0.666666687,  0.600000024
    291,  0.733333349,  0.600000024
    292,  0.800000012,  0.600000024
    293,  0.866666675,  0.600000024
    294,  0.933333337,  0.600000024
    295,           1.,  0.600000024
    296,   1.06666672,  0.600000024
    297,   1.13333333,  0.600000024
    298,   1.20000005,  0.600000024
    299,   1.26666665,  0.600000024
    300,   1.33333337,  0.600000024
    301,   1.39999998,  0.600000024
    302,    1.4666667,  0.600000024
    303,    1.5333333,  0.600000024
    304,   1.60000002,  0.600000024
    305,   1.66666663,  0.600000024
    306,   1.73333335,  0.600000024
    307,   1.79999995,  0.600000024
    308,   1.86666667,  0.600000024
    309,   1.93333328,  0.600000024
    310,           2.,  0.600000024
    311,           0.,  0.666666687
    312, 0.0666666701,  0.666666687
    313,   0.13333334,  0.666666687
    314,  0.200000003,  0.666666687
    315,  0.266666681,  0.666666687
    316,  0.333333343,  0.666666687
    317,  0.400000006,  0.666666687
    318,  0.466666669,  0.666666687
    319,  0.533333361,  0.666666687
    320,  0.600000024,  0.666666687
    321,  0.666666687,  0.666666687
    322,  0.733333349,  0.666666687
    323,  0.800000012,  0.666666687
    324,  0.866666675,  0.666666687
    325,  0.933333337,  0.666666687
    326,           1.,  0.666666687
    327,   1.06666672,  0.666666687
    328,   1.13333333,  0.666666687
    329,   1.20000005,  0.666666687
    330,   1.26666665,  0.666666687
    331,   1.33333337,  0.666666687
    332,   1.39999998,  0.666666687
    333,    1.4666667,  0.666666687
    334,    1.5333333,  0.666666687
    335,   1.60000002,  0.666666687
    336,   1.66666663,  0.666666687
    337,   1.73333335,  0.666666687
    338,   1.79999995,  0.666666687
    339,   1.86666667,  0.666666687
    340,   1.93333328,  0.666666687
    341,           2.,  0.666666687
    342,           0.,  0.733333349
    343, 0.0666666701,  0.733333349
    344,   0.13333334,  0.733333349
    345,  0.200000003,  0.733333349
    346,  0.266666681,  0.733333349
    347,  0.333333343,  0.733333349
    348,  0.400000006,  0.733333349
    349,  0.466666669,  0.733333349
    350,  0.533333361,  0.733333349
    351,  0.600000024,  0.733333349
    352,  0.666666687,  0.733333349
    353,  0.733333349,  0.733333349
    354,  0.800000012,  0.733333349
    355,  0.866666675,  0.733333349
    356,  0.933333337,  0.733333349
    357,           1.,  0.733333349
    358,   1.06666672,  0.733333349
    359,   1.13333333,  0.733333349
    360,   1.20000005,  0.733333349
    361,   1.26666665,  0.733333349
    362,   1.33333337,  0.733333349
    363,   1.39999998,  0.733333349
    364,    1.4666667,  0.733333349
    365,    1.5333333,  0.733333349
    366,   1.60000002,  0.733333349
    367,   1.66666663,  0.733333349
    368,   1.73333335,  0.733333349
    369,   1.79999995,  0.733333349
    370,   1.86666667,  0.733333349
    371,   1.93333328,  0.733333349
    372,           2.,  0.733333349
    373,           0.,  0.800000012
    374, 0.0666666701,  0.800000012
    375,   0.13333334,  0.800000012
    376,  0.200000003,  0.800000012
    377,  0.266666681,  0.800000012
    378,  0.333333343,  0.800000012
    379,  0.400000006,  0.800000012
    380,  0.466666669,  0.800000012
    381,  0.533333361,  0.800000012
    382,  0.600000024,  0.800000012
    383,  0.666666687,  0.800000012
    384,  0.733333349,  0.800000012
    385,  0.800000012,  0.800000012
    386,  0.866666675,  0.800000012
    387,  0.933333337,  0.800000012
    388,           1.,  0.800000012
    389,   1.06666672,  0.800000012
    390,   1.13333333,  0.800000012
    391,   1.20000005,  0.800000012
    392,   1.26666665,  0.800000012
    393,   1.33333337,  0.800000012
    394,   1.39999998,  0.800000012
    395,    1.4666667,  0.800000012
    396,    1.5333333,  0.800000012
    397,   1.60000002,  0.800000012
    398,   1.66666663,  0.800000012
    399,   1.73333335,  0.800000012
    400,   1.79999995,  0.800000012
    401,   1.86666667,  0.800000012
    402,   1.93333328,  0.800000012
    403,           2.,  0.800000012
    404,           0.,  0.866666675
    405, 0.0666666701,  0.866666675
    406,   0.13333334,  0.866666675
    407,  0.200000003,  0.866666675
    408,  0.266666681,  0.866666675
    409,  0.333333343,  0.866666675
    410,  0.400000006,  0.866666675
    411,  0.466666669,  0.866666675
    412,  0.533333361,  0.866666675
    413,  0.600000024,  0.866666675
    414,  0.666666687,  0.866666675
    415,  0.733333349,  0.866666675
    416,  0.800000012,  0.866666675
    417,  0.866666675,  0.866666675
    418,  0.933333337,  0.866666675
    419,           1.,  0.866666675
    420,   1.06666672,  0.866666675
    421,   1.13333333,  0.866666675
    422,   1.20000005,  0.866666675
    423,   1.26666665,  0.866666675
    424,   1.33333337,  0.866666675
    425,   1.39999998,  0.866666675
    426,    1.4666667,  0.866666675
    427,    1.5333333,  0.866666675
    428,   1.60000002,  0.866666675
    429,   1.66666663,  0.866666675
    430,   1.73333335,  0.866666675
    431,   1.79999995,  0.866666675
    432,   1.86666667,  0.866666675
    433,   1.93333328,  0.866666675
    434,           2.,  0.866666675
    435,           0.,  0.933333337
    436, 0.0666666701,  0.933333337
    437,   0.13333334,  0.933333337
    438,  0.200000003,  0.933333337
    439,  0.266666681,  0.933333337
    440,  0.333333343,  0.933333337
    441,  0.400000006,  0.933333337
    442,  0.466666669,  0.933333337
    443,  0.533333361,  0.933333337
    444,  0.600000024,  0.933333337
    445,  0.666666687,  0.933333337
    446,  0.733333349,  0.933333337
    447,  0.800000012,  0.933333337
    448,  0.866666675,  0.933333337
    449,  0.933333337,  0.933333337
    450,           1.,  0.933333337
    451,   1.06666672,  0.933333337
    452,   1.13333333,  0.933333337
    453,   1.20000005,  0.933333337
    454,   1.26666665,  0.933333337
    455,   1.33333337,  0.933333337
    456,   1.39999998,  0.933333337
    457,    1.4666667,  0.933333337
    458,    1.5333333,  0.933333337
    459,   1.60000002,  0.933333337
    460,   1.66666663,  0.933333337
    461,   1.73333335,  0.933333337
    462,   1.79999995,  0.933333337
    463,   1.86666667,  0.933333337
    464,   1.93333328,  0.933333337
    465,           2.,  0.933333337
    466,           0.,           1.
    467, 0.0666666701,           1.
    468,   0.13333334,           1.
    469,  0.200000003,           1.
    470,  0.266666681,           1.
    471,  0.333333343,           1.
    472,  0.400000006,           1.
    473,  0.466666669,           1.
    474,  0.533333361,           1.
    475,  0.600000024,           1.
    476,  0.666666687,           1.
    477,  0.733333349,           1.
    478,  0.800000012,           1.
    479,  0.866666675,           1.
    480,  0.933333337,           1.
    481,           1.,           1.
    482,   1.06666672,           1.
    483,   1.13333333,           1.
    484,   1.20000005,           1.
    485,   1.26666665,           1.
    486,   1.33333337,           1.
    487,   1.39999998,           1.
    488,    1.4666667,           1.
    489,    1.5333333,           1.
    490,   1.60000002,           1.
    491,   1.66666663,           1.
    492,   1.73333335,           1.
    493,   1.79999995,           1.
    494,   1.86666667,           1.
    495,   1.93333328,           1.
    496,           2.,           1.
*Element, type=CPS4
  1,   1,   2,  33,  32
  2,   2,   3,  34,  33
  3,   3,   4,  35,  34
  4,   4,   5,  36,  35
  5,   5,   6,  37,  36
  6,   6,   7,  38,  37
  7,   7,   8,  39,  38
  8,   8,   9,  40,  39
  9,   9,  10,  41,  40
 10,  10,  11,  42,  41
 11,  11,  12,  43,  42
 12,  12,  13,  44,  43
 13,  13,  14,  45,  44
 14,  14,  15,  46,  45
 15,  15,  16,  47,  46
 16,  16,  17,  48,  47
 17,  17,  18,  49,  48
 18,  18,  19,  50,  49
 19,  19,  20,  51,  50
 20,  20,  21,  52,  51
 21,  21,  22,  53,  52
 22,  22,  23,  54,  53
 23,  23,  24,  55,  54
 24,  24,  25,  56,  55
 25,  25,  26,  57,  56
 26,  26,  27,  58,  57
 27,  27,  28,  59,  58
 28,  28,  29,  60,  59
 29,  29,  30,  61,  60
 30,  30,  31,  62,  61
 31,  32,  33,  64,  63
 32,  33,  34,  65,  64
 33,  34,  35,  66,  65
 34,  35,  36,  67,  66
 35,  36,  37,  68,  67
 36,  37,  38,  69,  68
 37,  38,  39,  70,  69
 38,  39,  40,  71,  70
 39,  40,  41,  72,  71
 40,  41,  42,  73,  72
 41,  42,  43,  74,  73
 42,  43,  44,  75,  74
 43,  44,  45,  76,  75
 44,  45,  46,  77,  76
 45,  46,  47,  78,  77
 46,  47,  48,  79,  78
 47,  48,  49,  80,  79
 48,  49,  50,  81,  80
 49,  50,  51,  82,  81
 50,  51,  52,  83,  82
 51,  52,  53,  84,  83
 52,  53,  54,  85,  84
 53,  54,  55,  86,  85
 54,  55,  56,  87,  86
 55,  56,  57,  88,  87
 56,  57,  58,  89,  88
 57,  58,  59,  90,  89
 58,  59,  60,  91,  90
 59,  60,  61,  92,  91
 60,  61,  62,  93,  92
 61,  63,  64,  95,  94
 62,  64,  65,  96,  95
 63,  65,  66,  97,  96
 64,  66,  67,  98,  97
 65,  67,  68,  99,  98
 66,  68,  69, 100,  99
 67,  69,  70, 101, 100
 68,  70,  71, 102, 101
 69,  71,  72, 103, 102
 70,  72,  73, 104, 103
 71,  73,  74, 105, 104
 72,  74,  75, 106, 105
 73,  75,  76, 107, 106
 74,  76,  77, 108, 107
 75,  77,  78, 109, 108
 76,  78,  79, 110, 109
 77,  79,  80, 111, 110
 78,  80,  81, 112, 111
 79,  81,  82, 113, 112
 80,  82,  83, 114, 113
 81,  83,  84, 115, 114
 82,  84,  85, 116, 115
 83,  85,  86, 117, 116
 84,  86,  87, 118, 117
 85,  87,  88, 119, 118
 86,  88,  89, 120, 119
 87,  89,  90, 121, 120
 88,  90,  91, 122, 121
 89,  91,  92, 123, 122
 90,  92,  93, 124, 123
 91,  94,  95, 126, 125
 92,  95,  96, 127, 126
 93,  96,  97, 128, 127
 94,  97,  98, 129, 128
 95,  98,  99, 130, 129
 96,  99, 100, 131, 130
 97, 100, 101, 132, 131
 98, 101, 102, 133, 132
 99, 102, 103, 134, 133
100, 103, 104, 135, 134
101, 104, 105, 136, 135
102, 105, 106, 137, 136
103, 106, 107, 138, 137
104, 107, 108, 139, 138
105, 108, 109, 140, 139
106, 109, 110, 141, 140
107, 110, 111, 142, 141
108, 111, 112, 143, 142
109, 112, 113, 144, 143
110, 113, 114, 145, 144
111, 114, 115, 146, 145
112, 115, 116, 147, 146
113, 116, 117, 148, 147
114, 117, 118, 149, 148
115, 118, 119, 150, 149
116, 119, 120, 151, 150
117, 120, 121, 152, 151
118, 121, 122, 153, 152
119, 122, 123, 154, 153
120, 123, 124, 155, 154
121, 125, 126, 157, 156
122, 126, 127, 158, 157
123, 127, 128, 159, 158
124, 128, 129, 160, 159
125, 129, 130, 161, 160
126, 130, 131, 162, 161
127, 131, 132, 163, 162
128, 132, 133, 164, 163
129, 133, 134, 165, 164
130, 134, 135, 166, 165
131, 135, 136, 167, 166
132, 136, 137, 168, 167
133, 137, 138, 169, 168
134, 138, 139, 170, 169
135, 139, 140, 171, 170
136, 140, 141, 172, 171
137, 141, 142, 173, 172
138, 142, 143, 174, 173
139, 143, 144, 175, 174
140, 144, 145, 176, 175
141, 145, 146, 177, 176
142, 146, 147, 178, 177
143, 147, 148, 179, 178
144, 148, 149, 180, 179
145, 149, 150, 181, 180
146, 150, 151, 182, 181
147, 151, 152, 183, 182
148, 152, 153, 184, 183
149, 153, 154, 185, 184
150, 154, 155, 186, 185
151, 156, 157, 188, 187
152, 157, 158, 189, 188
153, 158, 159, 190, 189
154, 159, 160, 191, 190
155, 160, 161, 192, 191
156, 161, 162, 193, 192
157, 162, 163, 194, 193
158, 163, 164, 195, 194
159, 164, 165, 196, 195
160, 165, 166, 197, 196
161, 166, 167, 198, 197
162, 167, 168, 199, 198
163, 168, 169, 200, 199
164, 169, 170, 201, 200
165, 170, 171, 202, 201
166, 171, 172, 203, 202
167, 172, 173, 204, 203
168, 173, 174, 205, 204
169, 174, 175, 206, 205
170, 175, 176, 207, 206
171, 176, 177, 208, 207
172, 177, 178, 209, 208
173, 178, 179, 210, 209
174, 179, 180, 211, 210
175, 180, 181, 212, 211
176, 181, 182, 213, 212
177, 182, 183, 214, 213
178, 183, 184, 215, 214
179, 184, 185, 216, 215
180, 185, 186, 217, 216
181, 187, 188, 219, 218
182, 188, 189, 220, 219
183, 189, 190, 221, 220
184, 190, 191, 222, 221
185, 191, 192, 223, 222
186, 192, 193, 224, 223
187, 193, 194, 225, 224
188, 194, 195, 226, 225
189, 195, 196, 227, 226
190, 196, 197, 228, 227
191, 197, 198, 229, 228
192, 198, 199, 230, 229
193, 199, 200, 231, 230
194, 200, 201, 232, 231
195, 201, 202, 233, 232
196, 202, 203, 234, 233
197, 203, 204, 235, 234
198, 204, 205, 236, 235
199, 205, 206, 237, 236
200, 206, 207, 238, 237
201, 207, 208, 239, 238
202, 208, 209, 240, 239
203, 209, 210, 241, 240
204, 210, 211, 242, 241
205, 211, 212, 243, 242
206, 212, 213, 244, 243
207, 213, 214, 245, 244
208, 214, 215, 246, 245
209, 215, 216, 247, 246
210, 216, 217, 248, 247
211, 218, 219, 250, 249
212, 219, 220, 251, 250
213, 220, 221, 252, 251
214, 221, 222, 253, 252
215, 222, 223, 254, 253
216, 223, 224, 255, 254
217, 224, 225, 256, 255
218, 225, 226, 257, 256
219, 226, 227, 258, 257
220, 227, 228, 259, 258
221, 228, 229, 260, 259
222, 229, 230, 261, 260
223, 230, 231, 262, 261
224, 231, 232, 263, 262
225, 232, 233, 264, 263
226, 233, 234, 265, 264
227, 234, 235, 266, 265
228, 235, 236, 267, 266
229, 236, 237, 268, 267
230, 237, 238, 269, 268
231, 238, 239, 270, 269
232, 239, 240, 271, 270
233, 240, 241, 272, 271
234, 241, 242, 273, 272
235, 242, 243, 274, 273
236, 243, 244, 275, 274
237, 244, 245, 276, 275
238, 245, 246, 277, 276
239, 246, 247, 278, 277
240, 247, 248, 279, 278
241, 249, 250, 281, 280
242, 250, 251, 282, 281
243, 251, 252, 283, 282
244, 252, 253, 284, 283
245, 253, 254, 285, 284
246, 254, 255, 286, 285
247, 255, 256, 287, 286
248, 256, 257, 288, 287
249, 257, 258, 289, 288
250, 258, 259, 290, 289
251, 259, 260, 291, 290
252, 260, 261, 292, 291
253, 261, 262, 293, 292
254, 262, 263, 294, 293
255, 263, 264, 295, 294
256, 264, 265, 296, 295
257, 265, 266, 297, 296
258, 266, 267, 298, 297
259, 267, 268, 299, 298
260, 268, 269, 300, 299
261, 269, 270, 301, 300
262, 270, 271, 302, 301
263, 271, 272, 303, 302
264, 272, 273, 304, 303
265, 273, 274, 305, 304
266, 274, 275, 306, 305
267, 275, 276, 307, 306
268, 276, 277, 308, 307
269, 277, 278, 309, 308
270, 278, 279, 310, 309
271, 280, 281, 312, 311
272, 281, 282, 313, 312
273, 282, 283, 314, 313
274, 283, 284, 315, 314
275, 284, 285, 316, 315
276, 285, 286, 317, 316
277, 286, 287, 318, 317
278, 287, 288, 319, 318
279, 288, 289, 320, 319
280, 289, 290, 321, 320
281, 290, 291, 322, 321
282, 291, 292, 323, 322
283, 292, 293, 324, 323
284, 293, 294, 325, 324
285, 294, 295, 326, 325
286, 295, 296, 327, 326
287, 296, 297, 328, 327
288, 297, 298, 329, 328
289, 298, 299, 330, 329
290, 299, 300, 331, 330
291, 300, 301, 332, 331
292, 301, 302, 333, 332
293, 302, 303, 334, 333
294, 303, 304, 335, 334
295, 304, 305, 336, 335
296, 305, 306, 337, 336
297, 306, 307, 338, 337
298, 307, 308, 339, 338
299, 308, 309, 340, 339
300, 309, 310, 341, 340
301, 311, 312, 343, 342
302, 312, 313, 344, 343
303, 313, 314, 345, 344
304, 314, 315, 346, 345
305, 315, 316, 347, 346
306, 316, 317, 348, 347
307, 317, 318, 349, 348
308, 318, 319, 350, 349
309, 319, 320, 351, 350
310, 320, 321, 352, 351
311, 321, 322, 353, 352
312, 322, 323, 354, 353
313, 323, 324, 355, 354
314, 324, 325, 356, 355
315, 325, 326, 357, 356
316, 326, 327, 358, 357
317, 327, 328, 359, 358
318, 328, 329, 360, 359
319, 329, 330, 361, 360
320, 330, 331, 362, 361
321, 331, 332, 363, 362
322, 332, 333, 364, 363
323, 333, 334, 365, 364
324, 334, 335, 366, 365
325, 335, 336, 367, 366
326, 336, 337, 368, 367
327, 337, 338, 369, 368
328, 338, 339, 370, 369
329, 339, 340, 371, 370
330, 340, 341, 372, 371
331, 342, 343, 374, 373
332, 343, 344, 375, 374
333, 344, 345, 376, 375
334, 345, 346, 377, 376
335, 346, 347, 378, 377
336, 347, 348, 379, 378
337, 348, 349, 380, 379
338, 349, 350, 381, 380
339, 350, 351, 382, 381
340, 351, 352, 383, 382
341, 352, 353, 384, 383
342, 353, 354, 385, 384
343, 354, 355, 386, 385
344, 355, 356, 387, 386
345, 356, 357, 388, 387
346, 357, 358, 389, 388
347, 358, 359, 390, 389
348, 359, 360, 391, 390
349, 360, 361, 392, 391
350, 361, 362, 393, 392
351, 362, 363, 394, 393
352, 363, 364, 395, 394
353, 364, 365, 396, 395
354, 365, 366, 397, 396
355, 366, 367, 398, 397
356, 367, 368, 399, 398
357, 368, 369, 400, 399
358, 369, 370, 401, 400
359, 370, 371, 402, 401
360, 371, 372, 403, 402
361, 373, 374, 405, 404
362, 374, 375, 406, 405
363, 375, 376, 407, 406
364, 376, 377, 408, 407
365, 377, 378, 409, 408
366, 378, 379, 410, 409
367, 379, 380, 411, 410
368, 380, 381, 412, 411
369, 381, 382, 413, 412
370, 382, 383, 414, 413
371, 383, 384, 415, 414
372, 384, 385, 416, 415
373, 385, 386, 417, 416
374, 386, 387, 418, 417
375, 387, 388, 419, 418
376, 388, 389, 420, 419
377, 389, 390, 421, 420
378, 390, 391, 422, 421
379, 391, 392, 423, 422
380, 392, 393, 424, 423
381, 393, 394, 425, 424
382, 394, 395, 426, 425
383, 395, 396, 427, 426
384, 396, 397, 428, 427
385, 397, 398, 429, 428
386, 398, 399, 430, 429
387, 399, 400, 431, 430
388, 400, 401, 432, 431
389, 401, 402, 433, 432
390, 402, 403, 434, 433
391, 404, 405, 436, 435
392, 405, 406, 437, 436
393, 406, 407, 438, 437
394, 407, 408, 439, 438
395, 408, 409, 440, 439
396, 409, 410, 441, 440
397, 410, 411, 442, 441
398, 411, 412, 443, 442
399, 412, 413, 444, 443
400, 413, 414, 445, 444
401, 414, 415, 446, 445
402, 415, 416, 447, 446
403, 416, 417, 448, 447
404, 417, 418, 449, 448
405, 418, 419, 450, 449
406, 419, 420, 451, 450
407, 420, 421, 452, 451
408, 421, 422, 453, 452
409, 422, 423, 454, 453
410, 423, 424, 455, 454
411, 424, 425, 456, 455
412, 425, 426, 457, 456
413, 426, 427, 458, 457
414, 427, 428, 459, 458
415, 428, 429, 460, 459
416, 429, 430, 461, 460
417, 430, 431, 462, 461
418, 431, 432, 463, 462
419, 432, 433, 464, 463
420, 433, 434, 465, 464
421, 435, 436, 467, 466
422, 436, 437, 468, 467
423, 437, 438, 469, 468
424, 438, 439, 470, 469
425, 439, 440, 471, 470
426, 440, 441, 472, 471
427, 441, 442, 473, 472
428, 442, 443, 474, 473
429, 443, 444, 475, 474
430, 444, 445, 476, 475
431, 445, 446, 477, 476
432, 446, 447, 478, 477
433, 447, 448, 479, 478
434, 448, 449, 480, 479
435, 449, 450, 481, 480
436, 450, 451, 482, 481
437, 451, 452, 483, 482
438, 452, 453, 484, 483
439, 453, 454, 485, 484
440, 454, 455, 486, 485
441, 455, 456, 487, 486
442, 456, 457, 488, 487
443, 457, 458, 489, 488
444, 458, 459, 490, 489
445, 459, 460, 491, 490
446, 460, 461, 492, 491
447, 461, 462, 493, 492
448, 462, 463, 494, 493
449, 463, 464, 495, 494
450, 464, 465, 496, 495
*Nset, nset=Set-1, generate
   1,  496,    1
*Elset, elset=Set-1, generate
   1,  450,    1
** Section: Section-1
*Solid Section, elset=Set-1, material=Steel
1.,
*End Part
**  
**
** ASSEMBLY
**
*Assembly, name=Assembly
**  
*Instance, name=Part-1-1, part=Part-1
*End Instance
**  
*Nset, nset=Set-1, instance=Part-1-1, generate
   1,  466,   31
*Elset, elset=Set-1, instance=Part-1-1, generate
   1,  421,   30
*Nset, nset=Set-2, instance=Part-1-1
 31,
*Nset, nset=Set-3, instance=Part-1-1
 466,
*End Assembly
** 
** MATERIALS
** 
*Material, name=Steel
*Elastic
 1e+06, 0.3
** ----------------------------------------------------------------
** 
** STEP: Step-1
** 
*Step, name=Step-1, nlgeom=NO
*Static
1., 1., 1e-05, 1.
** 
** BOUNDARY CONDITIONS
** 
** Name: BC-1-1 Type: Displacement/Rotation
*Boundary
Set-1, 1, 1
** Name: BC-1-2 Type: Displacement/Rotation
*Boundary
Set-2, 2, 2
** 
** LOADS
** 
** Name: Load-1   Type: Concentrated force
*Cload
Set-3, 1, 0.
Set-3, 2, -1.
** 
** OUTPUT REQUESTS
** 
*Restart, write, frequency=0
** 
** FIELD OUTPUT: F-Output-1
** 
*Output, field, variable=PRESELECT
** 
** HISTORY OUTPUT: H-Output-1
** 
*Output, history, variable=PRESELECT
*End Step
