*Heading
** Job name: SMAHeatTransient_05 Model name: TowerScenario1_Model
** Generated by: Abaqus/CAE 2025
*Preprint, echo=NO, model=NO, history=NO, contact=NO
*Restart, read, step=7
*Elset, elset=Assembly._PickedSet217, internal, instance=SMAWire_(Nitinol)
  1,  2,  3,  4,  5,  6,  7,  8,  9, 10, 11, 12, 13, 14, 15, 16
 17, 18, 19, 20, 21
** ----------------------------------------------------------------
** 
** STEP: Heat_05
** 
*Step, name=Heat_05, nlgeom=YES, inc=200
*Coupled Temperature-displacement, creep=none, deltmx=5.
0.1, 30., 4e-05, 5.
** 
** LOADS
** 
** Name: SolarFlux   Type: Body heat flux Using Field: FluxField_05
*Dflux
SMAWire_(Nitinol).1, BF, 816890.
SMAWire_(Nitinol).2, BF, 766387.
SMAWire_(Nitinol).3, BF, 845726.
SMAWire_(Nitinol).4, BF, 809337.
SMAWire_(Nitinol).5, BF, 834626.
SMAWire_(Nitinol).6, BF, 833465.
SMAWire_(Nitinol).7, BF, 830496.
SMAWire_(Nitinol).8, BF, 819926.
SMAWire_(Nitinol).9, BF, 845064.
SMAWire_(Nitinol).10, BF, 806462.
SMAWire_(Nitinol).11, BF, 803501.
SMAWire_(Nitinol).12, BF, 786054.
SMAWire_(Nitinol).13, BF, 791371.
SMAWire_(Nitinol).14, BF, 366534.
** 
** OUTPUT REQUESTS
** 
*Restart, write, overlay, frequency=1
** 
** FIELD OUTPUT: F-Output-1
** 
*Output, field, time interval=0.01, time marks=NO
*Node Output
CF, NT, RF, U
*Element Output, directions=YES
LE, PE, PEEQ, PEMAG, S, SDV, TEMP
*Contact Output, variable=PRESELECT
** 
** HISTORY OUTPUT: H-Output-1
** 
*Output, history, variable=PRESELECT
*End Step
