*Heading
** Job name: SMAHeatTransient_15 Model name: TowerScenario1_Model
** Generated by: Abaqus/CAE 2025
*Preprint, echo=NO, model=NO, history=NO, contact=NO
*Restart, read, step=17
*Elset, elset=Assembly._PickedSet227, internal, instance=SMAWire_(Nitinol)
  1,  2,  3,  4,  5,  6,  7,  8,  9, 10, 11, 12, 13, 14, 15, 16
 17, 18, 19, 20, 21
** ----------------------------------------------------------------
** 
** STEP: Heat_15
** 
*Step, name=Heat_15, nlgeom=YES, inc=200
*Coupled Temperature-displacement, creep=none, deltmx=5.
0.1, 30., 4e-05, 5.
** 
** LOADS
** 
** Name: SolarFlux   Type: Body heat flux Using Field: FluxField_15
*Dflux
SMAWire_(Nitinol).1, BF, 792314.
SMAWire_(Nitinol).2, BF, 838644.
SMAWire_(Nitinol).3, BF, 866913.
SMAWire_(Nitinol).4, BF, 807666.
SMAWire_(Nitinol).5, BF, 804579.
SMAWire_(Nitinol).6, BF, 823257.
SMAWire_(Nitinol).7, BF, 827942.
SMAWire_(Nitinol).8, BF, 825222.
SMAWire_(Nitinol).9, BF, 834337.
SMAWire_(Nitinol).10, BF, 804263.
SMAWire_(Nitinol).11, BF, 802434.
SMAWire_(Nitinol).12, BF, 815662.
SMAWire_(Nitinol).13, BF, 829771.
SMAWire_(Nitinol).14, BF, 837579.
** 
** OUTPUT REQUESTS
** 
*Restart, write, overlay, frequency=1
** 
** FIELD OUTPUT: F-Output-1
** 
*Output, field, time interval=0.01, time marks=NO
*Node Output
CF, NT, RF, U
*Element Output, directions=YES
LE, PE, PEEQ, PEMAG, S, SDV, TEMP
*Contact Output, variable=PRESELECT
** 
** HISTORY OUTPUT: H-Output-1
** 
*Output, history, variable=PRESELECT
*End Step
