*Heading
** Job name: SMAHeatTransient_02 Model name: TowerScenario1_Model
** Generated by: Abaqus/CAE 2025
*Preprint, echo=NO, model=NO, history=NO, contact=NO
*Restart, read, step=4
*Elset, elset=Assembly._PickedSet214, internal, instance=SMAWire_(Nitinol)
  1,  2,  3,  4,  5,  6,  7,  8,  9, 10, 11, 12, 13, 14, 15, 16
 17, 18, 19, 20, 21
** ----------------------------------------------------------------
** 
** STEP: Heat_02
** 
*Step, name=Heat_02, nlgeom=YES, inc=200
*Coupled Temperature-displacement, creep=none, deltmx=5.
0.1, 30., 4e-05, 5.
** 
** LOADS
** 
** Name: SolarFlux   Type: Body heat flux Using Field: FluxField_02
*Dflux
SMAWire_(Nitinol).1, BF, 769234.
SMAWire_(Nitinol).2, BF, 813190.
SMAWire_(Nitinol).3, BF, 807744.
SMAWire_(Nitinol).4, BF, 812175.
SMAWire_(Nitinol).5, BF, 774369.
SMAWire_(Nitinol).6, BF, 811459.
SMAWire_(Nitinol).7, BF, 762137.
SMAWire_(Nitinol).8, BF, 781214.
SMAWire_(Nitinol).9, BF, 766840.
SMAWire_(Nitinol).10, BF, 793235.
SMAWire_(Nitinol).11, BF, 769457.
SMAWire_(Nitinol).12, BF, 757798.
SMAWire_(Nitinol).13, BF, 792465.
SMAWire_(Nitinol).14, BF, 57126.4
** 
** OUTPUT REQUESTS
** 
*Restart, write, overlay, frequency=1
** 
** FIELD OUTPUT: F-Output-1
** 
*Output, field, time interval=0.01, time marks=NO
*Node Output
CF, NT, RF, U
*Element Output, directions=YES
LE, PE, PEEQ, PEMAG, S, SDV, TEMP
*Contact Output, variable=PRESELECT
** 
** HISTORY OUTPUT: H-Output-1
** 
*Output, history, variable=PRESELECT
*End Step
