*Heading
 Iteration 17
** Job name: SMAHeatTransient_17 Model name: Model_17
** Generated by: Abaqus/CAE 2025
*Preprint, echo=NO, model=NO, history=NO, contact=NO
**
** PARTS
**
*Part, name="SMAStrip (Nitinol)"
*Node
      1, 2.47124044e-05, 0.0605438016, 0.00173974258
      2, 2.0336076e-05, 0.0504264683, 0.00148645544
      3, 1.59597475e-05, 0.0403091349, 0.00123316841
      4, 7.20709113e-06,   0.02007447, 0.000726594182
      5, 2.83076315e-06, 0.00995713565, 0.000473307096
      6, 2.17008237e-05, 0.0706800669, 0.00123701408
      7, -1.54556494e-06, -0.000160197378, 0.000220019981
      8, 0.0100013791, -0.000933067931, -0.000865354377
      9, 0.0300627481, -0.00102254539, -0.00171380374
     10, 0.0400917232, -0.00106608937, -0.00217698002
     11, 0.0601459183, -0.00115078629, -0.0031812198
     12,  0.070171006, -0.00119193865, -0.00372227677
     13, 0.0902168155, -0.00127184985, -0.00488224672
     14,  0.100237407, -0.00131060812, -0.00550115202
     15,   0.12027362, -0.00138572871, -0.00681678159
     16,  0.130289108, -0.00142209057, -0.00751349749
     17,  0.150314525, -0.00149241614, -0.0089847073
     18,  0.160324305, -0.00152637926, -0.00975919235
     19,  0.180337697, -0.00159190549, -0.0113858944
     20,  0.190341175, -0.00162346801, -0.0122381002
     21,  0.210341349, -0.00168419094, -0.0140201962
     22,  0.220337912, -0.00171335088, -0.0149500724
     23,  0.240323648, -0.00176926679, -0.0168874543
     24,  0.250312686, -0.00179602241, -0.0178949442
     25,  0.270282805, -0.00184712803, -0.0199874956
     26,  0.280263722, -0.0018714777, -0.0210725404
     27,  0.300217003, -0.0019177699, -0.023320131
     28,  0.310189188, -0.00193971209, -0.0244826637
     29,  0.330124408, -0.00198118808, -0.026885163
     30,  0.340087295, -0.0020007214, -0.0281251147
     31,  0.360003233, -0.00203737873, -0.0306823757
     32,  0.369956195, -0.00205450226, -0.0319996662
     33,  0.389851689, -0.00208633859, -0.034711536
     34,  0.399794132, -0.00210105116, -0.036106091
     35,  0.419667989, -0.00212806463, -0.0389724039
     36,  0.429599255, -0.00214036531, -0.0404441394
     37,  0.449450254, -0.0021625543, -0.043464724
     38,  0.459369838, -0.00217244239, -0.0450135469
     39,  0.479196787, -0.0021898055, -0.048188217
     40,  0.489104003, -0.00219728053, -0.0498140417
     41,  0.508905709, -0.00220981683, -0.0531426072
     42,   0.51880002, -0.0022148781, -0.0548453294
     43,  0.538575292, -0.00222258666, -0.0583275929
     44,  0.548456073, -0.00222523394, -0.0601071082
     45,  0.568203688, -0.00222811452, -0.0637428537
     46,  0.578070343, -0.00222834758, -0.0655990615
     47,  0.597789109, -0.00222639996, -0.0693880767
     48,  0.607641041, -0.00222421903, -0.0713208541
     49,  0.627329826, -0.00221744319, -0.0752629042
     50,   0.63716644, -0.00221284828, -0.0772721469
     51,  0.656823993, -0.00220124447, -0.0813669935
     52,  0.666644752, -0.0021942358, -0.0834525749
     53,  0.686269879, -0.00217780517, -0.0876999721
     54,  0.696074128, -0.00216838322, -0.0898617655
     55,  0.715665638, -0.00214712648,  -0.09426146
     56,   0.72545284, -0.00213529193, -0.0964993313
     57,  0.745009601, -0.00210921047, -0.101051055
     58,    0.7547791, -0.0020949638, -0.103364877
     59,   0.77429992, -0.00206405902, -0.108068354
     60,   0.78405112, -0.00204740115, -0.110457987
     61,  0.803534865, -0.00201167515, -0.115312934
     62,  0.813267171, -0.00199260726, -0.117778227
     63,  0.832712591, -0.00195206201, -0.122784346
     64,  0.842425525, -0.00193058501, -0.125325158
     65,  0.861831427, -0.00188522309, -0.130482152
     66,  0.871524274, -0.0018613385, -0.133098319
     67,  0.890889585, -0.00181116257, -0.138405889
     68,   0.90056181, -0.00178487168, -0.141097248
     69,  0.919885278, -0.00172988477, -0.146555066
     70,  0.929536343, -0.00170118921, -0.149321467
     71,  0.948816776, -0.00164139469, -0.154929191
     72,  0.958446085, -0.0016102962,  -0.15777047
     73,  0.977682412, -0.00154569768, -0.163527772
     74,   0.98728931, -0.00151219813,  -0.16644375
     75,  0.987288058, 0.00863916986, -0.166427806
     76,  0.987289906, 0.0289419033,  -0.16642791
     77,    0.9872908, 0.0390932709, -0.166427955
     78,  0.987291694, 0.0492446385, -0.166428015
     79,  0.987292647, 0.0593960062, -0.166428074
     80,  0.987294495, 0.0796987414, -0.166428179
     81,  0.987295389, 0.0898501053, -0.166428223
     82,  0.987296283,  0.100001477, -0.166428283
     83,  0.977657616,  0.100928076, -0.163632274
     84,   0.95842278,   0.10101524, -0.157874167
     85,  0.948794246,  0.101057597,  -0.15503253
     86,  0.929515243,  0.101139829,  -0.14942421
     87,  0.919864833,  0.101179712, -0.146657556
     88,  0.900542736,  0.101257004, -0.141199365
     89,  0.890871167,  0.101294421, -0.138507873
     90,  0.871507168,  0.101366766, -0.133200139
     91,  0.861814916,  0.101401709, -0.130583942
     92,  0.842410207,  0.101469107, -0.125426993
     93,  0.832697928,  0.101501569, -0.122886278
     94,  0.813253641,   0.10156402, -0.117880426
     95,  0.803521872,  0.101594009, -0.115415327
     96,  0.784039259,  0.101651497, -0.110560872
     97,  0.774288595,  0.101679005, -0.108171552
     98,  0.754768789,  0.101731539, -0.103468791
     99,  0.744999766,  0.101756565, -0.101155385
    100,  0.725444019,   0.10180413, -0.0966046005
    101,  0.715657294,  0.101826675, -0.0943672508
    102,  0.696066678,  0.101869278, -0.0899687186
    103,  0.686262906,  0.101889335, -0.0878075659
    104,  0.666638672,  0.101926968, -0.0835615546
    105,   0.65681833,  0.101944543, -0.0814767256
    106,  0.637161672,  0.101977207, -0.0773834884
    107,  0.627325416,  0.101992294, -0.0753751099
    108,  0.607637465,  0.102019981, -0.0714349002
    109,   0.59778589,  0.102032587, -0.0695030913
    110,  0.578067899,  0.102055304,  -0.06571614
    111,  0.568201602,  0.102065414, -0.0638610274
    112,  0.548454702,  0.102083154, -0.0602275692
    113,  0.538574278,  0.102090776, -0.0584492534
    114,  0.518799722,  0.102103539, -0.0549695119
    115,  0.508905768,  0.102108672, -0.0532681048
    116,  0.489104778,  0.102116458, -0.0499422848
    117,   0.47919786,  0.102119111, -0.0483178906
    118,  0.459371567,  0.102121912, -0.0451461971
    119,  0.449452341,  0.102122068, -0.0435989127
    120,  0.429601997,    0.1021199, -0.0405815355
    121,  0.419670999,  0.102117568, -0.0391114578
    122,  0.399797797,  0.102110416, -0.0362485759
    123,  0.389855683,  0.102105595, -0.0348557942
    124,  0.369960785,  0.102093466, -0.0321475863
    125,   0.36000815,  0.102086157, -0.0308321808
    126,  0.340092778,   0.10206905, -0.0282788109
    127,  0.330130219,  0.102059253, -0.0270408634
    128,  0.310195625,  0.102037169, -0.0246424843
    129,  0.300223708,  0.102024883, -0.0234820694
    130,  0.280271083,  0.101997823, -0.0212388281
    131,  0.270290464,  0.101983048, -0.0201560147
    132,  0.250320971,  0.101951018, -0.0180680454
    133,  0.240332231,  0.101933762, -0.0170629025
    134,  0.220347106,  0.101896755, -0.0151303327
    135,  0.210350856,  0.101877011, -0.0142029189
    136,  0.190351322,  0.101835042, -0.012425865
    137,  0.180348173,  0.101812817, -0.0115762372
    138,  0.160335436,  0.101765878, -0.00995480735
    139,  0.150325969,  0.101741165, -0.00918301567
    140,  0.130301237,  0.101689264, -0.00771730812
    141,  0.120286085,   0.10166207, -0.00702340063
    142,  0.100250572,  0.101605207, -0.00571350381
    143, 0.0902303308,  0.101575539, -0.0050975224
    144, 0.0701852441,  0.101513721, -0.00394351548
    145, 0.0601605251,  0.101481572, -0.00340549764
    146, 0.0401070826,    0.1014148, -0.00240745069
    147, 0.0300784931,  0.101380169, -0.00194742845
    148,  0.010017911,   0.10130845, -0.00110540201
    149, -1.39453296e-05,  0.101271354, -0.000723403529
    150, -6.71319185e-07,  0.091075629, -4.86983299e-05
    151, 1.15014327e-05, 0.0808788463, 0.000609590672
    152, 0.00784298778, 0.0585971996, -0.00513958605
    153, 0.0110418918, 0.0697211996, -0.00318010617
    154, 0.0229869075, 0.0681743398, -0.00566358585
    155, 0.0293473601, 0.0673386529, -0.00697222026
    156, 0.0543108955, 0.0706512555, -0.0101575712
    157, 0.0636072904, 0.0771773905, -0.00912491698
    158, 0.0715013221,  0.068118982, -0.0138452686
    159, 0.0805213377, 0.0675364882, -0.015530196
    160, 0.0898719206, 0.0673233047, -0.0171635784
    161, 0.0993610248, 0.0674207583, -0.0187335908
    162,  0.108843811, 0.0676835626, -0.0202556793
    163,  0.118116237, 0.0674047321, -0.0218948163
    164,  0.128148407, 0.0665012673, -0.0238284245
    165,  0.148144767, 0.0689446554, -0.0264985673
    166,  0.158082634, 0.0679437816, -0.0284687132
    167,  0.166243777, 0.0710571706, -0.0288583096
    168,  0.173358068, 0.0665015206, -0.0314378403
    169,  0.184322476, 0.0665680766, -0.033265736
    170,   0.19445996, 0.0671541989, -0.0348138809
    171,  0.204355463, 0.0674379244, -0.0364007428
    172,  0.214752764, 0.0658625141, -0.0385702215
    173,  0.224593863, 0.0673533678, -0.0398307294
    174,  0.233555809, 0.0670733973, -0.0414164141
    175,  0.242114991, 0.0659920201, -0.0431428589
    176,  0.250518769, 0.0644493029, -0.0449307412
    177,  0.258909345, 0.0625827387, -0.046741683
    178,  0.269033164, 0.0686086416, -0.0469471626
    179,  0.277002126, 0.0665105805, -0.0488803387
    180,  0.285170287, 0.0663798749, -0.0502895266
    181,  0.294763893, 0.0666140094, -0.0518425182
    182,  0.308626682, 0.0700945482, -0.0531450659
    183,  0.322694331, 0.0677547753, -0.0562291108
    184,  0.331626177, 0.0633790195, -0.0588185675
    185,  0.344843864, 0.0650014654, -0.0606784038
    186,  0.358907253, 0.0669140592, -0.0625582337
    187,    0.3730582, 0.0689394176, -0.0643552318
    188,  0.381296992, 0.0636544228, -0.0671203956
    189,  0.385964543, 0.0714922249, -0.0656865686
    190,  0.398013294, 0.0712593943, -0.0677960142
    191,  0.409643918, 0.0713794529, -0.0697115362
    192,  0.417653114, 0.0691402033, -0.0717990547
    193,  0.426767856, 0.0679626241, -0.0736861825
    194,  0.435823858, 0.0671586469, -0.0754375309
    195,   0.44449234, 0.0663769841, -0.077106677
    196,  0.452808231, 0.0650383905, -0.0788420141
    197,  0.463595301, 0.0716323331, -0.0787024498
    198,  0.472294331, 0.0695045739, -0.0808814093
    199,  0.481123567, 0.0666139126, -0.0832096785
    200,   0.49526161, 0.0697446838, -0.0846703947
    201,  0.509707034, 0.0693053231, -0.0872410536
    202,  0.522278845, 0.0684457049, -0.0896198228
    203,  0.534148037, 0.0658170357, -0.0923413411
    204,  0.543899059, 0.0700123608, -0.0927698091
    205,  0.553778887, 0.0674918368, -0.0951981246
    206,  0.571643174, 0.0652802885, -0.098785691
    207,    0.5833323, 0.0655803382, -0.100679263
    208,  0.595043182, 0.0663971007, -0.102441445
    209,   0.60617739,  0.065614827, -0.104515895
    210,  0.617102444, 0.0614762716, -0.107244469
    211,  0.624534011,  0.064628385,   -0.1078436
    212,   0.63249886, 0.0677755997, -0.108367056
    213,  0.641001642, 0.0712591112, -0.108691923
    214,  0.653418541, 0.0646067187, -0.112710476
    215,  0.662240267, 0.0674812868, -0.113456547
    216,  0.670734942, 0.0701476857, -0.114072807
    217,  0.680609107, 0.0631741658, -0.117603421
    218,  0.688973367, 0.0641701743, -0.118795052
    219,   0.69759047, 0.0654440597, -0.119944707
    220,  0.706011713, 0.0665911585, -0.121067792
    221,  0.723058224, 0.0669554174, -0.123838782
    222,  0.739337683, 0.0671948716, -0.126513034
    223,  0.748514771,  0.074611187, -0.125510857
    224,   0.75718981, 0.0728188902, -0.127679497
    225,  0.765965819, 0.0703935027, -0.130019322
    226,  0.775809526, 0.0682471767, -0.132350683
    227,  0.786545217, 0.0681720749, -0.134179741
    228,  0.796980679, 0.0668029338, -0.136322379
    229,  0.808011532, 0.0692223012, -0.137474224
    230,  0.821833909,  0.067884095, -0.140203193
    231,  0.831396341, 0.0694681183, -0.141332701
    232,  0.839496791, 0.0684113875, -0.143021196
    233,  0.846679449, 0.0661271289, -0.144866213
    234,  0.853539824, 0.0631428733, -0.146718174
    235,  0.860155523,  0.059378542, -0.148501843
    236,  0.872206151, 0.0639812574, -0.149679288
    237,  0.884531498, 0.0682365447, -0.150652915
    238,  0.895992696, 0.0692096055, -0.152286187
    239,  0.912280083, 0.0657262281,   -0.1560103
    240,  0.922910869, 0.0689143389, -0.156908289
    241,   0.93821615, 0.0741986781, -0.157605365
    242,  0.944825709, 0.0744276941, -0.158624426
    243,  0.951315224, 0.0723109022,  -0.16054067
    244,    0.9621436, 0.0720934793, -0.162442952
    245,  0.971651971, 0.0666546598, -0.165762037
    246,  0.970231473, 0.0761099979, -0.162182987
    247,  0.957003415, 0.0804002434, -0.157864332
    248,  0.947060108, 0.0822059214, -0.155189648
    249,   0.93757844,  0.082219258, -0.153586477
    250,  0.932595074, 0.0750835389, -0.156293243
    251,  0.919946492, 0.0797582492, -0.151966691
    252,  0.906895041, 0.0718739852,  -0.15322423
    253,  0.901107907,  0.073620379, -0.151591226
    254,  0.892414272, 0.0767902583,  -0.14878118
    255,  0.878713131, 0.0742324069, -0.147577599
    256,  0.865583122, 0.0682930648, -0.147446975
    257,  0.858412802,  0.071752198, -0.145108387
    258,  0.850713372, 0.0744285882, -0.142785415
    259,  0.842478752, 0.0763514042,  -0.14057596
    260,  0.833691299, 0.0774956942, -0.138571635
    261,  0.825088024, 0.0780179575, -0.136874989
    262,  0.816770554, 0.0789024159,  -0.13504076
    263,  0.807677507, 0.0783770531,  -0.13377066
    264,   0.78799814, 0.0780053362, -0.130639404
    265,  0.778008878, 0.0786357075, -0.128650606
    266,    0.7685197, 0.0798881873, -0.126416966
    267,  0.759312868,  0.081328705, -0.124092385
    268,  0.750138104, 0.0825644806, -0.121845521
    269,  0.731379211,  0.075851962, -0.122099891
    270,  0.713943481, 0.0757278129, -0.119219728
    271,  0.705124438,  0.075284265, -0.117926374
    272,  0.696334422, 0.0744719729, -0.116786428
    273,   0.68759346, 0.0734081119, -0.115740381
    274,  0.678978622, 0.0720933974, -0.114785939
    275,  0.668603301, 0.0792401507,  -0.10993661
    276,  0.659514487, 0.0770204142, -0.109481312
    277,  0.650030673, 0.0746208057, -0.108932547
    278,  0.637041152, 0.0802201778, -0.104117401
    279,  0.628341377,  0.076690115, -0.104386263
    280,  0.620327175, 0.0733182058,  -0.10445451
    281,  0.612916708, 0.0697233975, -0.104479462
    282,   0.60090518, 0.0728969797, -0.101347305
    283,   0.58898443, 0.0730677769, -0.0992759839
    284,  0.577282786,  0.071689561, -0.0978159606
    285,  0.571236014, 0.0765036196, -0.0948603228
    286,  0.566222787, 0.0801052973, -0.0922608003
    287,  0.549738467, 0.0799004361, -0.0895941779
    288,   0.53678304, 0.0783056095, -0.088218309
    289,   0.52947402, 0.0737859383, -0.0889809132
    290,  0.517074049, 0.0762897208, -0.085841164
    291,  0.502804637, 0.0774906054, -0.0828902349
    292,  0.486752927,  0.077173017, -0.0803371444
    293,  0.475640059, 0.0786667168, -0.0777516589
    294,  0.466326863, 0.0803354383, -0.0753287971
    295,  0.455198407, 0.0736064017, -0.0765513256
    296,   0.44664517, 0.0751243904, -0.0744938552
    297,  0.437940896,  0.076251857, -0.0725406781
    298,  0.429071337,  0.077166222, -0.0706331879
    299,  0.420272499, 0.0780181587, -0.0687504709
    300,  0.411993742, 0.0786740407, -0.0670374259
    301,  0.405038208, 0.0767431632, -0.0667827353
    302,  0.392641872, 0.0780642405, -0.0640784726
    303,  0.379122972, 0.0763629377, -0.0625927225
    304,  0.365286291,  0.074966751, -0.0608679242
    305,  0.350963771, 0.0730618984, -0.0592196137
    306,  0.336708277, 0.0705171525, -0.0577315688
    307,  0.327797651,  0.074958384, -0.0545623153
    308,  0.319478691, 0.0793072209, -0.051151365
    309,  0.314416796, 0.0850366279, -0.0470129661
    310,  0.306952208, 0.0819691345, -0.0476124398
    311,  0.296929419, 0.0774528533, -0.0482618734
    312,  0.284018368, 0.0754750744, -0.0469758175
    313,  0.277688831, 0.0724050775, -0.0471341088
    314,  0.271784037, 0.0755669102, -0.0448774435
    315,  0.252634585, 0.0738787651, -0.0423528776
    316,  0.243975669, 0.0755860209, -0.0401892923
    317,  0.234896019, 0.0765520781, -0.0382360332
    318,  0.225385144, 0.0768403858, -0.0365049019
    319,  0.215672031, 0.0766588151, -0.0349527076
    320,  0.205699369, 0.0768432468, -0.0331907049
    321,   0.19565253, 0.0768361315, -0.0315031782
    322,  0.185760975, 0.0767793357, -0.0298643839
    323,  0.176273867,  0.077199392, -0.0280751381
    324,  0.167214498, 0.0781674013, -0.0260926671
    325,  0.148225576, 0.0772076398, -0.0233511366
    326,  0.138701722, 0.0763008818, -0.0221598502
    327,  0.128841326,  0.076098457, -0.0205900129
    328,   0.11894203, 0.0763160735, -0.0188277345
    329,  0.109264135, 0.0764367655, -0.0171452109
    330, 0.0996511653, 0.0763945282, -0.0155463153
    331,  0.090195097, 0.0764011294, -0.0139520066
    332, 0.0809808224, 0.0765561908, -0.0123318713
    333, 0.0720763206, 0.0768242106, -0.0107121235
    334, 0.0636265725, 0.0845964476, -0.00509454962
    335, 0.0570489317, 0.0837820992, -0.00449326308
    336, 0.0381385721, 0.0739534274, -0.00622421131
    337, 0.0297736786, 0.0747233033, -0.00450429972
    338, 0.0208592881, 0.0739423037, -0.00332059222
    339, 0.0168196447, 0.0552567281, -0.00700737862
    340, 0.0274625458, 0.0601417758, -0.00821734313
    341, 0.0353901461, 0.0582190976, -0.00982594676
    342,  0.043408636, 0.0563733429, -0.0113836667
    343, 0.0530677922, 0.0624178611, -0.0121258684
    344, 0.0616870485, 0.0604062267, -0.0139359981
    345, 0.0705350563, 0.0585583709, -0.0156979281
    346, 0.0897201002, 0.0576334149, -0.0190434214
    347, 0.0995445997, 0.0578576103,  -0.02067036
    348,  0.108853005, 0.0587619357, -0.0221207608
    349,  0.116729774, 0.0584030747, -0.0234944876
    350,  0.126201853, 0.0564380959, -0.0253145508
    351,  0.136493146,  0.054601308, -0.0272028837
    352,  0.146257505, 0.0531980917, -0.0289302133
    353,  0.155961588, 0.0551411472, -0.0304398853
    354,  0.163999811, 0.0599999242,  -0.03122296
    355,  0.183640912, 0.0545333922, -0.0351446047
    356,  0.194487065, 0.0575709268, -0.0366867967
    357,  0.203390315, 0.0586447902, -0.0380503759
    358,   0.21012494, 0.0587961003, -0.0391635187
    359,  0.218996644, 0.0568282232, -0.0408954471
    360,  0.224925026, 0.0585717335, -0.041685164
    361,  0.240677565, 0.0564209484, -0.0445868932
    362,  0.257571191, 0.0535879582, -0.0476491153
    363,  0.266218245, 0.0522392429, -0.0491647571
    364,  0.276051551, 0.0590401404, -0.0502272435
    365,  0.285129488, 0.0580948144, -0.0518814139
    366,    0.2946693, 0.0576488785, -0.0535418354
    367,  0.303633183, 0.0575178377, -0.0550662056
    368,    0.3102943, 0.0544859096, -0.0564690307
    369,  0.327121675, 0.0560555272, -0.0591740385
    370,  0.339005023, 0.0578996763, -0.0609748028
    371,    0.3524113, 0.0584227294, -0.0631651059
    372,  0.367131799, 0.0607060939, -0.0653017461
    373,  0.376512676, 0.0550409816, -0.0675755665
    374,  0.390969962, 0.0602344126, -0.0693917796
    375,  0.402966589, 0.0619346164, -0.0711152405
    376,  0.414582998, 0.0595007874, -0.0734798536
    377,  0.424898982, 0.0584409013, -0.075364843
    378,  0.434458405, 0.0578248724, -0.0770521089
    379,  0.443287551, 0.0575472973, -0.0785715804
    380,   0.45039773, 0.0579962395, -0.0797141269
    381,  0.460397094, 0.0621978901, -0.0807322189
    382,  0.468539089, 0.0600341856, -0.0824807808
    383,  0.476543993, 0.0580463037, -0.0841091871
    384,  0.489138216, 0.0611351505, -0.0857653096
    385,  0.503037393, 0.0616276376, -0.0880167261
    386,  0.516934395, 0.0611195415, -0.0904469118
    387,  0.527250469, 0.0628595576, -0.0918544084
    388,  0.535640359, 0.0571587868, -0.0941623896
    389,  0.544401288, 0.0583561845, -0.0954922289
    390,  0.552583396, 0.0573504232, -0.0969928503
    391,  0.566250384, 0.0598590709, -0.0989558548
    392,  0.577390313, 0.0586258173,   -0.1010096
    393,  0.589252472, 0.0586038232, -0.103009365
    394,  0.600085795, 0.0602262095, -0.104593515
    395,   0.61054194, 0.0581982806, -0.106646389
    396,  0.620247781, 0.0533842854,   -0.1087147
    397,  0.627911925, 0.0554288253, -0.109864809
    398,   0.63621527, 0.0577210151, -0.111027487
    399,  0.648330212, 0.0514706038, -0.113514416
    400,  0.657037795, 0.0548493564, -0.114814259
    401,  0.665887177, 0.0575114414, -0.116047263
    402,  0.673673093, 0.0611136369, -0.116831407
    403,  0.679663241, 0.0538498089, -0.118690766
    404,   0.69028312, 0.0549761131, -0.120401122
    405,  0.699424803, 0.0562838875, -0.121825166
    406,  0.707388818, 0.0580064245, -0.122973375
    407,  0.723902643, 0.0568923354, -0.125883088
    408,  0.740040302, 0.0579306297, -0.128479213
    409,  0.754440665, 0.0642412677, -0.129798472
    410,  0.762021244, 0.0602775365, -0.131843776
    411,   0.77358526, 0.0556212775, -0.134370893
    412,  0.787790895,  0.058935497, -0.136384323
    413,  0.801299989, 0.0584127605, -0.138729542
    414,  0.811870515, 0.0597599782, -0.140316516
    415,   0.82569015, 0.0596875548, -0.142653883
    416,  0.836361527, 0.0609959513, -0.144236907
    417,  0.842549086, 0.0581384785, -0.145708784
    418,  0.848887682, 0.0550717749, -0.147093296
    419,   0.85507971, 0.0515562929, -0.148318395
    420,  0.866314471, 0.0546803176, -0.150056824
    421,  0.878458738, 0.0587348156, -0.151674554
    422,  0.896122694,  0.056481041,  -0.15491724
    423,  0.908234656, 0.0579041243, -0.156795457
    424,  0.917937636, 0.0595985688, -0.158195496
    425,   0.92638886, 0.0562971979, -0.160030618
    426,  0.937516332, 0.0642797574, -0.160605103
    427,  0.947482347, 0.0659411624, -0.161880836
    428,  0.957684755, 0.0596781559, -0.164874077
    429,  0.971831858, 0.0571874157, -0.167586103
    430,  0.971289873, 0.0466239974, -0.167815998
    431,  0.960843444, 0.0499666259, -0.166143462
    432,  0.944291294, 0.0595971085, -0.162631854
    433,  0.933789074, 0.0517312102,  -0.16156444
    434,  0.916974366, 0.0495002382,  -0.15875636
    435,  0.901634812, 0.0505775735, -0.156172648
    436,  0.890807927, 0.0484388545, -0.154334739
    437,  0.879448712, 0.0441803634, -0.152180076
    438,  0.872436404, 0.0492528602,  -0.15125598
    439,  0.860932112, 0.0466790386, -0.149239078
    440,  0.850756645, 0.0444727316, -0.147375062
    441,  0.844581664, 0.0472161695,  -0.14651157
    442,  0.838148057, 0.0503656827, -0.145486236
    443,  0.826679468, 0.0467471443, -0.143475786
    444,  0.819970727, 0.0530711897, -0.142352834
    445,  0.808743238, 0.0495045967, -0.140535355
    446,   0.79822886,  0.047896795, -0.138733327
    447,  0.788441777,  0.050546661,  -0.13711679
    448,  0.780488253, 0.0462023579, -0.135669395
    449,  0.765271664, 0.0447965078, -0.133009434
    450,  0.753044307, 0.0500569493, -0.131160006
    451,  0.742817521, 0.0503794737, -0.129437149
    452,  0.731498778, 0.0512342006, -0.127520755
    453,  0.720946252, 0.0496777743, -0.125755519
    454,  0.711975276, 0.0498827621, -0.124245897
    455,  0.692791522,  0.045728486, -0.120875061
    456,  0.683995843, 0.0442222878, -0.119276509
    457,  0.670150697, 0.0468196757, -0.117126375
    458,  0.660068393, 0.0453184284,   -0.1153372
    459,  0.652683854, 0.0443983413, -0.114020288
    460,     0.639844,  0.045711413, -0.111959606
    461,   0.62953794, 0.0460274778, -0.110244781
    462,  0.621208966, 0.0462207347, -0.108854167
    463,   0.61336416, 0.0491090715, -0.107638389
    464,  0.604001164, 0.0493345298, -0.106064826
    465,   0.59619391, 0.0525407679, -0.104704097
    466,  0.583756685, 0.0511530824, -0.102649957
    467,  0.570710778,   0.05248015, -0.100416459
    468,  0.560268164, 0.0571626127, -0.0983077288
    469,  0.544441581, 0.0491832271, -0.0960359871
    470,  0.537668943, 0.0503177159, -0.0949004441
    471,  0.525868952, 0.0536692291, -0.0928109735
    472,  0.510576487,  0.052803006, -0.0902798921
    473,  0.496508241, 0.0539534725, -0.0878515169
    474,  0.489938915, 0.0468545072, -0.0867878273
    475,  0.478225559, 0.0470513292, -0.0848251656
    476,  0.473873705,  0.051609844, -0.0841415748
    477,   0.46631816,   0.04923499, -0.082884267
    478,  0.455378145, 0.0513721518, -0.0810332745
    479,  0.444132626, 0.0489413254, -0.0791449621
    480,  0.434135377, 0.0486115329, -0.0774554685
    481,  0.424042791, 0.0488983802, -0.0757620111
    482,  0.413386494, 0.0494248085, -0.0739750937
    483,  0.401848108, 0.0497070216, -0.0720346123
    484,   0.38816005, 0.0488599874, -0.0697202981
    485,  0.370019913, 0.0462425984, -0.0665652007
    486,  0.360497147,  0.051725179, -0.0650518686
    487,  0.345084578, 0.0507349372, -0.0624754541
    488,  0.334720641, 0.0445885584, -0.0605030879
    489,  0.321887642, 0.0476335287, -0.0585287921
    490,  0.311236739, 0.0466780886, -0.0566927232
    491,  0.302670985, 0.0479352176, -0.0553041324
    492,  0.294230044, 0.0468769446, -0.0538395979
    493,  0.284326971,  0.049569197, -0.0522487164
    494,  0.274279088, 0.0427962355, -0.050149139
    495,  0.265572459, 0.0435528904, -0.0487644561
    496,  0.256778151, 0.0444695689, -0.047370147
    497,  0.247997537, 0.0455786921, -0.0459786803
    498,   0.22340171, 0.0511118099, -0.0419850089
    499,  0.212804049, 0.0519220345, -0.0401825681
    500,  0.204886913, 0.0496819429, -0.0388755016
    501,  0.196312696, 0.0486998931, -0.0374187231
    502,   0.18886292, 0.0476409532, -0.0361333899
    503,  0.175970212,  0.042305544, -0.0335394703
    504,  0.168658063,  0.051472161, -0.0327620693
    505,  0.159382448, 0.0464128368, -0.0311121065
    506,  0.147361845, 0.0420885123, -0.0286959969
    507,  0.134811342, 0.0445326418, -0.0268407762
    508,  0.123709872, 0.0466417745, -0.0251188893
    509,  0.112087511, 0.0494383089, -0.0232505091
    510,  0.100373037, 0.0481264219, -0.0212519951
    511, 0.0796172917, 0.0476869717, -0.0177428126
    512, 0.0689500645, 0.0475594923, -0.0159420427
    513, 0.0598562099, 0.0514815785, -0.0144451782
    514, 0.0514754765, 0.0542256795, -0.0129161216
    515, 0.0419191681, 0.0485601947, -0.0114226416
    516, 0.0338559709, 0.0504386127, -0.0100822328
    517, 0.0255398024, 0.0524747707, -0.00863886066
    518, 0.0153790768, 0.0458269753, -0.0068315547
    519, 0.00701402547, 0.0484398156, -0.00554320449
    520, 0.0150578367, 0.0354858115, -0.00524257589
    521, 0.0243301354, 0.0437763929, -0.0081697898
    522, 0.0327860005, 0.0423973054, -0.00944278762
    523, 0.0406659953, 0.0408918746, -0.0105706472
    524, 0.0571037009, 0.0436595678, -0.0136761405
    525, 0.0635751709, 0.0396668613, -0.0142394006
    526, 0.0799734071, 0.0377781354, -0.0166623443
    527,  0.090086855, 0.0377783142, -0.0183652714
    528,  0.100574106, 0.0378656536, -0.0201480184
    529,  0.111277573, 0.0377587676, -0.0219295453
    530,  0.121956073, 0.0365353823, -0.0234771688
    531,  0.132499561, 0.0349035822, -0.024879856
    532,  0.142082497, 0.0326926559, -0.0259168036
    533,   0.14884229, 0.0295621883, -0.0260930602
    534,  0.155088603, 0.0331804194, -0.0282413233
    535,  0.164911315, 0.0369237624, -0.0307921898
    536,  0.187167063, 0.0399622321, -0.0350967422
    537,  0.197079942, 0.0396662168, -0.0367181376
    538,  0.206856892, 0.0403906517, -0.0384784974
    539,  0.217733189, 0.0423196182, -0.0405727625
    540,  0.228462443, 0.0392637737, -0.0419351012
    541,  0.238065094, 0.0375369601, -0.0432344005
    542,  0.247326285, 0.0363199003, -0.0445406437
    543,  0.256471813, 0.0354163609, -0.0458767675
    544,  0.265545636, 0.0348092914, -0.047260046
    545,  0.282849252, 0.0351821668, -0.0502632707
    546,  0.289446533, 0.0386343785, -0.0520932972
    547,  0.301159918, 0.0403121263, -0.0543446429
    548,  0.316340208, 0.0288205482, -0.0540461615
    549,  0.321027875, 0.0357295536, -0.0568191521
    550,  0.331107616,  0.034312591,  -0.05817689
    551,  0.352563739, 0.0411994457, -0.0631288737
    552,  0.363988191,  0.036524307, -0.0642286241
    553,  0.373286128, 0.0325640328, -0.0648133457
    554,  0.378740996, 0.0411849953, -0.0675343648
    555,  0.392244518, 0.0366352908, -0.0690101609
    556,  0.402965307, 0.0388888754, -0.0712524578
    557,  0.413624763,  0.039355319, -0.0731273741
    558,  0.424038082, 0.0392860733, -0.074869059
    559,  0.434290439, 0.0392272286, -0.0765853226
    560,  0.444552988, 0.0394366756, -0.0783485398
    561,  0.454686999, 0.0396796651, -0.0800948516
    562,  0.464009821, 0.0386652201, -0.0814912766
    563,  0.472866923, 0.0375038125, -0.0827636793
    564,   0.48272264, 0.0391292609, -0.084723413
    565,  0.490219563, 0.0358179808, -0.0853283182
    566,  0.496284097, 0.0398526005, -0.0871266201
    567,  0.503755331,  0.045372963, -0.0890239552
    568,  0.518850982, 0.0441742651, -0.091467604
    569,  0.543543696, 0.0404995419, -0.0951838642
    570,  0.552626491, 0.0458623022, -0.0972854719
    571,  0.562826693,  0.047961399, -0.0991038978
    572,  0.576648355, 0.0446636789, -0.101241268
    573,  0.591886997, 0.0423185006, -0.103568472
    574,  0.602660775, 0.0407183096,  -0.10516981
    575,  0.620412886, 0.0378840342, -0.107681379
    576,   0.62874788, 0.0366999246, -0.108846642
    577,  0.636761963, 0.0352812745, -0.109880187
    578,  0.649714828, 0.0366905183, -0.112375103
    579,  0.660124123, 0.0355429202, -0.113874778
    580,  0.669163287, 0.0351046175, -0.115294397
    581,  0.677794576, 0.0341477543, -0.116512902
    582,  0.686496198,  0.034838289, -0.118149184
    583,  0.695418358, 0.0360986106, -0.119942993
    584,  0.705005288, 0.0375353545, -0.121857256
    585,  0.715222836,  0.039209228, -0.123884454
    586,   0.72717768, 0.0418006591,  -0.12628299
    587,  0.740345895, 0.0399078764, -0.128229126
    588,  0.750960827, 0.0385966897,  -0.12979494
    589,  0.760904074, 0.0361792594, -0.130987391
    590,  0.774560869, 0.0374822617, -0.133558527
    591,  0.786831021, 0.0397147872, -0.136025161
    592,  0.792798281, 0.0437696092, -0.137552753
    593,  0.803873599, 0.0422262065,  -0.13924928
    594,  0.822301269, 0.0382344574, -0.141740993
    595,   0.83379823, 0.0422191136, -0.144286796
    596,  0.840927303, 0.0389142074, -0.144999355
    597,  0.856480598, 0.0359843336, -0.147037804
    598,   0.86557281, 0.0386357456, -0.149099961
    599,  0.880951703, 0.0329435989, -0.150404856
    600,  0.887569308, 0.0379795097,  -0.15268296
    601,  0.897636831, 0.0381668396, -0.154413283
    602,   0.90680933, 0.0417680331, -0.156523377
    603,  0.916294277, 0.0414263792, -0.158075631
    604,  0.924347699, 0.0460308194, -0.159879342
    605,  0.939247966, 0.0415388942, -0.161955282
    606,  0.949220359, 0.0409241691, -0.163550317
    607,  0.958233654, 0.0392446481, -0.164807543
    608,  0.967087328, 0.0365064852, -0.165775746
    609, 0.0159247536, 0.0244119931, -0.00173368771
    610, 0.0257727169, 0.0253610834, -0.0037945963
    611, 0.0354531929,  0.026146045, -0.00574432826
    612, 0.0458712988, 0.0289911982, -0.00855833665
    613, 0.0584686399, 0.0301813614, -0.0110785076
    614, 0.0695972964,  0.028459724, -0.012367392
    615,  0.079953894, 0.0280335862, -0.0139582418
    616, 0.0901814401,  0.027863754, -0.0156185878
    617,  0.100470856, 0.0276778918, -0.0172828939
    618,  0.120928757, 0.0264459997, -0.0202579182
    619,  0.130919889, 0.0252355095, -0.0214502178
    620,  0.140342578, 0.0237816162, -0.0224102065
    621,  0.149422377, 0.0228244644, -0.0235034265
    622,  0.158741981, 0.0239142273, -0.0255678482
    623,   0.16976209, 0.0257232282, -0.0281925388
    624,  0.187709853, 0.0307137147, -0.033012297
    625,    0.2076924, 0.0307062417, -0.0363749228
    626,  0.217705503, 0.0306883045, -0.0380554423
    627,  0.227667928, 0.0295709427, -0.039370127
    628,  0.237497613, 0.0283307433, -0.0405960903
    629,  0.247123525, 0.0273283161, -0.0418493338
    630,  0.256619573, 0.0265989807, -0.0431690663
    631,  0.266099215, 0.0261885449, -0.0446037948
    632,   0.27567187, 0.0262465663, -0.0462389551
    633,  0.285636902, 0.0272432826, -0.0483031012
    634,  0.296571016, 0.0304624178, -0.0512645394
    635,  0.308089912, 0.0288701691, -0.0526740663
    636,  0.319951862, 0.0228467621, -0.0522338077
    637,    0.3272838, 0.0276648216, -0.0554741547
    638,  0.340158641, 0.0301262699, -0.058496438
    639,   0.35046041, 0.0284205358, -0.059651237
    640,  0.360695451, 0.0262070596, -0.0605418608
    641,  0.381460398, 0.0293642543, -0.0651990399
    642,  0.389173061,  0.027972661, -0.0660094172
    643,   0.39624685, 0.0279742759, -0.0672012493
    644,   0.40486902, 0.0291610025, -0.0690719113
    645,  0.414535046, 0.0296322051, -0.0708587468
    646,  0.424543321, 0.0297376309, -0.0725791603
    647,   0.43464458, 0.0297309551, -0.0742779821
    648,  0.444708735, 0.0296892878, -0.0759589374
    649,  0.454499573, 0.0294988733, -0.0775441229
    650,  0.463917017, 0.0290506128, -0.0789777413
    651,  0.473315507, 0.0287294239, -0.0804490969
    652,  0.482573897, 0.0287979618, -0.0820321292
    653,   0.49152115, 0.0287628118, -0.0835266039
    654,  0.500652254, 0.0308917835, -0.0857660472
    655,  0.511147439, 0.0344747752, -0.088533774
    656,  0.520627797, 0.0304087345, -0.0889777765
    657,  0.528381407, 0.0352220275, -0.0916166157
    658,  0.549792826,  0.030728532, -0.0939901695
    659,  0.558335602, 0.0341491364, -0.0963978693
    660,  0.577406347, 0.0333160274, -0.0993918031
    661,  0.583278179, 0.0373476855, -0.101323605
    662,  0.595046103, 0.0305040386, -0.101539873
    663,  0.605064332, 0.0228743628, -0.100264266
    664,  0.611539006, 0.0307031535, -0.104380012
    665,  0.627819896, 0.0274590291, -0.106009148
    666,  0.635772943, 0.0259892847, -0.106780089
    667,  0.652019143, 0.0254476629, -0.109296203
    668,  0.660799503, 0.0255149808, -0.110802531
    669,  0.669855952, 0.0253196694, -0.112247296
    670,  0.678967595, 0.0252548717, -0.113754943
    671,  0.688270867, 0.0257426817, -0.115521774
    672,  0.697644651, 0.0266486276, -0.117459729
    673,  0.707358479, 0.0277999751, -0.119529702
    674,  0.717556715, 0.0290659685, -0.121695891
    675,  0.728327692, 0.0300148726, -0.123826839
    676,  0.739524305, 0.0295131821, -0.125546709
    677,  0.750003278, 0.0284294114, -0.126937985
    678,  0.760245144, 0.0270018186, -0.128137812
    679,  0.766718924,  0.022918297, -0.127509862
    680,  0.778762341, 0.0275224335, -0.131452024
    681,  0.785810113, 0.0292587224, -0.133255467
    682,  0.792290747, 0.0326780938,  -0.13540189
    683,  0.804444611, 0.0296887625, -0.136537641
    684,  0.817326963, 0.0290363245, -0.138487011
    685,  0.829581738, 0.0332599655, -0.141840428
    686,  0.837639928, 0.0298900623, -0.142193988
    687,  0.846269548,  0.027774293, -0.142913342
    688,  0.855264723, 0.0268426184, -0.144078717
    689,  0.864015341, 0.0266978554, -0.145496607
    690,  0.872557759,  0.025809234, -0.146584138
    691,  0.889896631, 0.0266614929,   -0.1498411
    692,  0.899059057, 0.0280022994, -0.151886269
    693,  0.908519626, 0.0295888782, -0.154030532
    694,  0.918528318, 0.0309588686, -0.156155095
    695,  0.929673493, 0.0331983417, -0.158678263
    696,  0.945714891, 0.0318802968, -0.161009684
    697,  0.955546618, 0.0301947519, -0.162148088
    698,  0.963737905,  0.026684599, -0.162285343
    699,  0.973473847, 0.0257259496, -0.163545579
    700, 0.0105075464, 0.0172088295, 0.00284920493
    701, 0.0204929635, 0.0157730859, 0.00204040622
    702, 0.0286448356, 0.0168309342, 1.91538584e-05
    703, 0.0381560251, 0.0177861489, -0.00214467733
    704, 0.0483897105, 0.0190333873, -0.00456950814
    705, 0.0590888858, 0.0196053833, -0.00668115122
    706, 0.0696615055, 0.0191872474, -0.00823628157
    707, 0.0800733939,  0.018778583, -0.00976564456
    708,  0.100437872, 0.0181335527, -0.0128338244
    709,  0.110506691, 0.0176859517, -0.0142729804
    710,  0.120477438, 0.0170575585, -0.015583924
    711,  0.130341321, 0.0162492525, -0.016757369
    712,  0.140066579, 0.0154474154, -0.0178954229
    713,   0.14985697, 0.0149703491, -0.0192392878
    714,  0.159696802, 0.0150672011, -0.0209591649
    715,  0.169562846, 0.0150335571, -0.0225993544
    716,  0.179104805, 0.0141261909, -0.0236113481
    717,  0.198281854, 0.0216053464, -0.0311496127
    718,  0.208164752, 0.0212937333, -0.0326601565
    719,  0.217981711, 0.0208803248, -0.0341061093
    720,   0.22778821, 0.0201882478, -0.0354022011
    721,  0.237618193, 0.0194002278, -0.0366401263
    722,  0.247389272,  0.018678885, -0.0378912501
    723,  0.257147729, 0.0181388333, -0.0392316356
    724,  0.266940653, 0.0178557243, -0.0407194011
    725,  0.276946187, 0.0179332234, -0.0424490944
    726,  0.287320942, 0.0184415132, -0.0444844924
    727,  0.298047453, 0.0190647114, -0.0466360413
    728,  0.309995174, 0.0185681861, -0.0483743362
    729,  0.317720592, 0.0139131518, -0.0468176715
    730,  0.325246632, 0.0161775891, -0.0495427176
    731,  0.335995793,  0.019990867, -0.0535237528
    732,  0.348349243, 0.0181707591, -0.054610908
    733,  0.358970344, 0.0165594686, -0.0554559678
    734,  0.368988782, 0.0149307353, -0.0561246797
    735,  0.388519019, 0.0201548357, -0.0624558069
    736,  0.397111803, 0.0198198184, -0.0637270734
    737,  0.406121165, 0.0201395582, -0.0654124692
    738,   0.41553998, 0.0204361472, -0.0671526268
    739,  0.425293744, 0.0205664169, -0.0688623264
    740,  0.435202867, 0.0205660556, -0.0705310702
    741,  0.445101559, 0.0204625819, -0.0721451119
    742,  0.454841435,  0.020267196, -0.0736845732
    743,  0.464422315,   0.02004347, -0.0751815885
    744,  0.473987132, 0.0199154895, -0.0767253339
    745,  0.483492821, 0.0199734997, -0.0783568397
    746,  0.493020624, 0.0203183889, -0.0801414028
    747,    0.5121575, 0.0219545681, -0.0841823742
    748,    0.5220384, 0.0215748325, -0.0856618211
    749,  0.532488525, 0.0220968947, -0.0876749456
    750,  0.540174365, 0.0172586404, -0.0863940567
    751,   0.55440706, 0.0215362683, -0.0910944343
    752,  0.562730789, 0.0235185288, -0.0934286341
    753,  0.571332932, 0.0248867031, -0.0954740047
    754,   0.57980901, 0.0256470125, -0.0972169712
    755,  0.587578952, 0.0280614477, -0.0994536728
    756,  0.598692656, 0.0208305195, -0.098201178
    757,  0.609256685, 0.0167484805, -0.097727038
    758,  0.626954436, 0.0185256973, -0.101735972
    759,  0.644146919, 0.0163176693, -0.103343204
    760,  0.652958691, 0.0161273591, -0.104710869
    761,  0.661914885, 0.0161645934, -0.106242307
    762,  0.671098351, 0.0162546653, -0.107844338
    763,  0.680471361,  0.016478302, -0.109559253
    764,  0.690009356,  0.016934095, -0.111439496
    765,   0.69963783, 0.0176008753, -0.113452613
    766,  0.709419787, 0.0184160508, -0.115564331
    767,  0.719415009, 0.0191931743,  -0.11767593
    768,  0.729583502, 0.0196597371, -0.119639017
    769,  0.739868641, 0.0195022076, -0.121287301
    770,  0.749851644, 0.0188546609,  -0.12261755
    771,  0.759120345, 0.0178348143,  -0.12360616
    772,  0.775454521, 0.0178435035, -0.126362339
    773,  0.782961011, 0.0195783656,  -0.12858586
    774,  0.790516794, 0.0218908135, -0.131032661
    775,  0.797819018, 0.0251895748, -0.133743569
    776,  0.811351955, 0.0214319788, -0.134317935
    777,  0.825538456, 0.0231841058, -0.137537941
    778,  0.834472895, 0.0200439058, -0.137507528
    779,  0.844143093,  0.018291492, -0.138185903
    780,   0.85371846, 0.0173108336, -0.139236033
    781,  0.862974226, 0.0167990196,  -0.14049229
    782,  0.872097373,  0.016500406, -0.141849414
    783,  0.881441057, 0.0165219009, -0.143436223
    784,   0.89078337, 0.0171085931, -0.145360157
    785,  0.900228083, 0.0179924406, -0.147463188
    786,  0.909840763,  0.018955959, -0.149619773
    787,  0.919585228, 0.0198060386, -0.151717678
    788,  0.929066956, 0.0202890728, -0.153566912
    789,  0.947355926, 0.0207925513, -0.156904697
    790,  0.955779612,   0.02205473,  -0.15894489
    791,  0.965787292, 0.0191114992, -0.159127489
    792,  0.972869575, 0.0179215372, -0.159657881
    793, 0.00279214373, 0.0137300054, 0.00635465886
    794, 0.0134365018, 0.00907565188, 0.00803514849
    795, 0.0217535719, 0.00853632111, 0.00707989465
    796, 0.0307996422, 0.00890601985, 0.00524924416
    797, 0.0403918363, 0.00946741272, 0.00317625958
    798, 0.0504743457, 0.00996007305, 0.00108507229
    799, 0.0603106469, 0.0107202558, -0.00116281584
    800, 0.0703688413, 0.0105007878, -0.00268847239
    801, 0.0805065036, 0.0102036633, -0.00416546501
    802,  0.090590708, 0.00988335814, -0.00561238453
    803,  0.110583402, 0.0091472948, -0.00838925783
    804,  0.120498657, 0.00867877714, -0.00967417471
    805,  0.130389646, 0.00814138912, -0.010889316
    806,  0.140281841, 0.00765744643, -0.0121410815
    807,  0.150231779, 0.00728097279, -0.013489021
    808,   0.16014345, 0.00700912066,  -0.01491863
    809,  0.169949591, 0.00667342683, -0.0162703432
    810,  0.179695562, 0.00619739806, -0.0174791887
    811,  0.188957945, 0.0135032581, -0.0248497538
    812,  0.198840335, 0.0130492942, -0.026200749
    813,  0.208712533, 0.0126277357, -0.0275673382
    814,  0.218529344,  0.012171044, -0.028894268
    815,  0.228348151, 0.0116507495, -0.0301687699
    816,  0.238200814, 0.0111016799, -0.031419415
    817,  0.248068735, 0.0105897561, -0.0326922052
    818,  0.257956654, 0.0101798326, -0.0340402313
    819,  0.267928809, 0.00992830563, -0.035522636
    820,  0.288282454, 0.00987912342, -0.0389126018
    821,  0.298530877, 0.00978073291, -0.0405611284
    822,  0.308504134, 0.00908589642, -0.0416820012
    823,  0.317978472, 0.00791213382, -0.0422971435
    824,  0.327703357, 0.00840489194, -0.0443529747
    825,  0.337711096, 0.00921863504, -0.046710398
    826,  0.348118424, 0.00881602801, -0.0481342413
    827,  0.358442098, 0.00790592935, -0.0491087884
    828,  0.368517309, 0.0069198017, -0.0499451123
    829,  0.378439873, 0.00603402592, -0.0508131385
    830,  0.388214409, 0.0125305904, -0.057735607
    831,  0.406947196, 0.0120221972, -0.0605260506
    832,  0.416467816, 0.0120904762, -0.0621792935
    833,  0.426161349, 0.0121386424, -0.0638470054
    834,  0.435967475, 0.0121164359, -0.0654828325
    835,  0.445789546, 0.0120219998, -0.0670690164
    836,  0.455550194, 0.0118843382, -0.0686131194
    837,  0.465250403, 0.0117603615, -0.0701565221
    838,   0.47494626, 0.0117052309, -0.0717493892
    839,  0.484641016, 0.0117622856, -0.0734243542
    840,  0.494360656, 0.0119608827, -0.0752065927
    841,  0.504054546, 0.0122553073, -0.0770523027
    842,  0.513558984, 0.0124400565, -0.0787855759
    843,  0.532293022, 0.0118589224, -0.0815221742
    844,  0.541119814, 0.0110230427, -0.0823889375
    845,  0.558287501, 0.0127773033, -0.0865589604
    846,  0.566792548, 0.0140472706, -0.0888626799
    847,   0.57533884, 0.0152965831, -0.091117084
    848,  0.583844602, 0.0166994333, -0.0934172869
    849,  0.591752112, 0.0186137427, -0.0958558694
    850,  0.604109406, 0.0123940529, -0.0940060914
    851,  0.617139459, 0.0122397365, -0.096090503
    852,  0.625830054, 0.00984399859, -0.0957487822
    853,  0.635139704, 0.00861368794, -0.0963204503
    854,  0.644493461, 0.00799770001, -0.0973784104
    855,  0.653827965, 0.00778683694, -0.0987707525
    856,  0.663169801, 0.00782917254,  -0.10038089
    857,  0.672604322, 0.00801866874, -0.102132104
    858,  0.682163894, 0.00832264498, -0.103999488
    859,  0.691834211, 0.0087370798,  -0.10597381
    860,  0.701568007, 0.0092394799, -0.108024381
    861,  0.711363971, 0.00977551099, -0.110103831
    862,  0.721214592, 0.0102697844, -0.112150922
    863,  0.731099606, 0.0105807493, -0.114056125
    864,  0.740987241,  0.010605637, -0.115740865
    865,  0.750737786, 0.0103851985, -0.117213808
    866,  0.769269764,  0.010061021, -0.120083556
    867,  0.778293908, 0.0107491491, -0.122135103
    868,  0.786941648, 0.0121120065, -0.124602117
    869,  0.795418382, 0.0141168917, -0.127419993
    870,  0.803817928, 0.0170331374, -0.130667597
    871,  0.820362568, 0.0114998575, -0.129785046
    872,  0.832319379, 0.00976540428, -0.130472243
    873,  0.842745185, 0.00877234247, -0.131426394
    874,  0.852736712, 0.00823358167, -0.132660836
    875,  0.862450182, 0.0079998346, -0.134099483
    876,  0.872077763, 0.00794477575, -0.135674596
    877,   0.88178581, 0.00814144686, -0.137476996
    878,  0.891465545, 0.00857572351, -0.139471516
    879,  0.901140928, 0.00908772741, -0.141522288
    880,  0.910855472, 0.00958870351, -0.143562242
    881,   0.92054528, 0.0100767454,  -0.14557986
    882,  0.930060208, 0.0105659841, -0.147561446
    883,  0.939590335, 0.0109273084, -0.149441853
    884,  0.949558616, 0.0108893532,  -0.15109238
    885,  0.960131228, 0.0132366074, -0.154568896
    886,  0.971177816, 0.0105182473, -0.154451445
    887,  0.239103019, 0.00366941327, -0.0250379723
    888,  0.249025404, 0.00327332318, -0.0263013262
    889,  0.258976132, 0.00292594987, -0.0276138615
    890,  0.268975735, 0.00264365925, -0.0289987419
    891,  0.279027402, 0.00241763773, -0.0304495078
    892,  0.289102435, 0.00219716225, -0.0319078155
    893,  0.299098998, 0.00190022425, -0.033266142
    894,  0.308962196, 0.00148007891, -0.034459129
    895,   0.31884405, 0.00106060668, -0.0356469303
    896,   0.32886979, 0.000996203744, -0.0372622684
    897,  0.338789284, 0.000993909198, -0.0389311835
    898,  0.348736256, 0.000758650713, -0.0403347313
    899,   0.35875845, 0.000319529325, -0.041506581
    900,  0.368766636, -0.00019009503, -0.0425793529
    901,  0.378743798, -0.000669738802, -0.0436690114
    902,  0.397991449, 0.00495057227, -0.0530830808
    903,  0.407669336, 0.00476748869, -0.0545359626
    904,  0.417356253, 0.00469918083, -0.0561014339
    905,  0.427101761, 0.00466240151, -0.0577074699
    906,  0.436900586, 0.00460978737, -0.0593069084
    907,  0.446716994, 0.00452875579, -0.0608812533
    908,  0.456518948, 0.00443374272, -0.0624390766
    909,  0.466305405, 0.00435637636, -0.0640114248
    910,  0.476097077, 0.00431928132, -0.0656244233
    911,  0.485893995, 0.00433609262, -0.0672917888
    912,  0.495686531, 0.00439682417, -0.0690019056
    913,  0.515006185, 0.00446061743, -0.0723200962
    914,  0.524544358, 0.00433953712, -0.0738074109
    915,  0.533915281, 0.00416351669, -0.0752111077
    916,  0.543192089, 0.00408447348, -0.0766950622
    917,  0.552556336, 0.00438322593, -0.0785704255
    918,  0.561692297, 0.00499139493, -0.0807038695
    919,  0.570694566, 0.00579491956, -0.0829825029
    920,  0.579655886, 0.0067565334, -0.0853711069
    921,  0.588601947, 0.00795003492, -0.0879217163
    922,  0.597118437, 0.00969063956, -0.0907903835
    923,  0.613259017, 0.0035770149, -0.0879866108
    924,  0.625099421, 0.00162689434, -0.0878955871
    925,  0.635356367, 0.000811246282, -0.0886953324
    926,  0.645229995, 0.000502504059, -0.0899983644
    927,  0.654954433, 0.000455159345, -0.0915812925
    928,  0.664621413, 0.000569399912, -0.0933447406
    929,  0.674294293, 0.000787936326, -0.0952298418
    930,  0.684005678, 0.00107943697, -0.0972025245
    931,  0.693760395, 0.00141796994, -0.0992310271
    932,  0.703540921, 0.00179088255, -0.101296015
    933,  0.713336349, 0.00217483239, -0.103368469
    934,  0.723135829, 0.00252878433, -0.105402172
    935,  0.732920945, 0.00281345774, -0.107354209
    936,  0.742703378, 0.00300629484, -0.109205782
    937,  0.752436161, 0.0031250685, -0.110970043
    938,  0.398592144, -0.00135712954, -0.0461410917
    939,  0.408448011, -0.0015399626, -0.0475647971
    940,  0.418280423, -0.00165661727, -0.0490693115
    941,  0.428116798, -0.00174070743, -0.0506165326
    942,    0.4379659, -0.00181507925, -0.052178286
    943,  0.574363887, -0.00127091084, -0.0758752152
    944,  0.583840489, -0.000717128918, -0.0781739056
    945,  0.593410671, 1.3345026e-06, -0.0806686953
    946,  0.603246331, 0.00115635688, -0.083681643
    947,  0.984717667, 0.0861332715, -0.159075752
    948,  0.974032223, 0.0870466828, -0.156650484
    949,   0.94906652,  0.090446502, -0.149904028
    950,  0.939716101, 0.0911101997,  -0.14779231
    951,  0.931398034, 0.0911492482,  -0.14636077
    952,  0.915989995,  0.088997297, -0.145466492
    953,  0.907123804, 0.0812249333, -0.149022728
    954,  0.899732292, 0.0802891478, -0.148286045
    955,  0.887740314, 0.0861109719, -0.142773539
    956,   0.87160033, 0.0779906958, -0.144715458
    957,  0.863410413, 0.0808199644, -0.141888693
    958,  0.854830265,  0.082918033, -0.139254287
    959,  0.845902503, 0.0844641849, -0.136807114
    960,  0.836742938, 0.0855029672, -0.134597242
    961,  0.827660501, 0.0862041488, -0.132601753
    962,  0.818522215, 0.0866994336, -0.130726159
    963,  0.809038997, 0.0868066549, -0.129056498
    964,  0.799394965, 0.0867956504, -0.127441451
    965,  0.789720476, 0.0870565176, -0.125632271
    966,  0.780051172, 0.0875927657, -0.123626538
    967,  0.770547271, 0.0883849114, -0.121452935
    968,  0.761115789, 0.0892713964, -0.119201303
    969,  0.751664102, 0.0900948122, -0.116972238
    970,   0.74221462, 0.0907561332, -0.114853911
    971,   0.72288996, 0.0840372667, -0.116375118
    972,  0.713771939, 0.0839713141, -0.114881657
    973,  0.704614162, 0.0836726427, -0.113524035
    974,  0.695468009, 0.0831096545, -0.112324618
    975,  0.686368585, 0.0822501704, -0.111297101
    976,  0.677397013, 0.0810035989, -0.110486969
    977,  0.666956306, 0.0880303979, -0.104283012
    978,   0.65789187, 0.0856754333, -0.104390018
    979,  0.646833777, 0.0849232003, -0.103019208
    980,  0.632204413, 0.0876027569, -0.0987437814
    981,  0.615622103, 0.0816372707, -0.099740766
    982,  0.607903957,  0.077836737, -0.100413032
    983,  0.595765889, 0.0805478692, -0.0969971418
    984,  0.583041847, 0.0791165084, -0.0956007689
    985,  0.576136172, 0.0835072622, -0.092005901
    986,  0.568609595, 0.0862961933, -0.0889521018
    987,  0.560662508, 0.0871453583, -0.0870300159
    988,  0.545522809, 0.0893901139, -0.0828379393
    989,  0.531925857, 0.0855857059, -0.0832541287
    990,   0.52441746, 0.0817164183, -0.0843489245
    991,  0.511601865, 0.0844523683, -0.0805636272
    992,  0.495668441, 0.0855850801, -0.0771538466
    993,  0.486384064, 0.0866516456, -0.0748746693
    994,  0.477370381, 0.0869885609, -0.0731251761
    995,  0.468729913,  0.088142857, -0.0708494559
    996,  0.457813561, 0.0822055638, -0.0728633031
    997,  0.449344605, 0.0838153437, -0.0704833344
    998,  0.440544128,  0.085018985, -0.0682468265
    999,  0.431467861, 0.0858635828, -0.0661671832
   1000,  0.422178715, 0.0864325836, -0.064221397
   1001,  0.412444234, 0.0865384787, -0.0625113025
   1002,  0.401336253, 0.0854544789, -0.0613671318
   1003,  0.385819614, 0.0829033703, -0.0603426173
   1004,  0.371947944, 0.0819620565, -0.0585534945
   1005,  0.357586265, 0.0813421756, -0.0564843714
   1006,  0.342921764, 0.0783933997, -0.0555516817
   1007,  0.334665269, 0.0826605484, -0.0518774688
   1008,  0.327149719, 0.0863142312, -0.0483123623
   1009,  0.316593796, 0.0924886614, -0.0417978205
   1010,  0.310967892, 0.0907466561, -0.0423088036
   1011,  0.296150088, 0.0872450396, -0.0424546897
   1012,  0.288346052, 0.0839318931, -0.0433210917
   1013,  0.276273638, 0.0806758627, -0.0431650765
   1014,  0.269254923, 0.0862176344, -0.0386363417
   1015,  0.255684286, 0.0834192708, -0.0381372236
   1016,  0.246446565, 0.0851948038, -0.0354741067
   1017,  0.236701131, 0.0859394446, -0.0333453342
   1018,  0.226881981, 0.0861753449, -0.0315352082
   1019,  0.217060447, 0.0861456171, -0.0299026426
   1020,  0.207144767, 0.0860814154, -0.0282773245
   1021,  0.197204456, 0.0860072747, -0.0266543888
   1022,   0.18742533, 0.0859963745, -0.0250162445
   1023,  0.168280289, 0.0862076357, -0.0216532499
   1024,  0.158576638, 0.0859590545, -0.0201870892
   1025,  0.148815572, 0.0855983719, -0.0187834315
   1026,  0.139132142, 0.0851638019, -0.0174371861
   1027,  0.129396185, 0.0848773345, -0.015982924
   1028,   0.11959105, 0.0847614631, -0.014406872
   1029,  0.109813079, 0.0847058073, -0.0127969179
   1030,  0.100126624, 0.0846437961, -0.0112062944
   1031, 0.0905895904, 0.0846721381, -0.00958362501
   1032, 0.0812704116, 0.0848101899, -0.00792791881
   1033, 0.0721688792, 0.0848181024, -0.00639142143
   1034, 0.0619440489, 0.0910780057, -0.000144068385
   1035,  0.051647421,  0.088451907, -0.000448957173
   1036, 0.0394865088, 0.0820121393, -0.00258074584
   1037, 0.0300991088, 0.0824754685, -0.000735404727
   1038, 0.0200531594, 0.0818767697, 0.000612694828
   1039,  0.925061882, 0.0916450471, -0.144882336
   1040,  0.908433497, 0.0891626626, -0.144069776
   1041,  0.899230421, 0.0886388868, -0.142915606
   1042,  0.830303788, 0.0934729949, -0.127347007
   1043,   0.82073462, 0.0939223319, -0.125326827
   1044,  0.811055481, 0.0942022949, -0.123438984
   1045,    0.8013556,  0.094478853, -0.121547848
   1046,  0.791676104, 0.0948251486, -0.119590484
   1047,  0.782022297, 0.0952703357, -0.117536381
   1048,  0.772403598, 0.0957981572, -0.115397744
   1049,  0.762792647, 0.0963597596, -0.113214038
   1050,  0.753149569,  0.096898824, -0.111034557
   1051,  0.743492067, 0.0973805562, -0.108900703
   1052,  0.732793212, 0.0912160799, -0.112892911
   1053,  0.723389924, 0.0914762393, -0.111095197
   1054,  0.713961005, 0.0915551633, -0.109443016
   1055,  0.704498529, 0.0914582089, -0.107932001
   1056,  0.685496747, 0.0906225145, -0.105419599
   1057,  0.675999105, 0.0896958336, -0.104554228
   1058,  0.664275706, 0.0969574824, -0.0960239768
   1059,  0.650556266, 0.0934309289, -0.097146742
   1060,  0.643170238, 0.0953373462, -0.094113782
   1061,  0.628638864, 0.0943442062, -0.0926198214
   1062,   0.61991477, 0.0925004929, -0.0928156748
   1063,   0.61080265, 0.0900263786, -0.0933272243
   1064,  0.602409899, 0.0863469467, -0.0946048498
   1065,  0.588740766, 0.0871886536, -0.0917239413
   1066,  0.581025958, 0.0911429673, -0.087420173
   1067,  0.572155058, 0.0935127959, -0.0838836059
   1068,  0.563383818, 0.0947670862, -0.0812428221
   1069,  0.546220481, 0.0957894102, -0.0773594305
   1070,  0.537576854, 0.0950719565, -0.0766090304
   1071,  0.528712034, 0.0931278169, -0.0769209415
   1072,  0.520522892,  0.090286091, -0.0779332295
   1073,  0.506697416, 0.0913986862, -0.0747041479
   1074,  0.495365947, 0.0947981849, -0.0697712228
   1075,  0.478412986,  0.094658576, -0.0670522526
   1076,  0.471246392, 0.0940940082, -0.0663760304
   1077,   0.46094054, 0.0904898047, -0.0677466914
   1078,  0.452713013, 0.0922701731, -0.0648859963
   1079,   0.44347918, 0.0932734907, -0.0624523163
   1080,  0.424342573, 0.0942029953, -0.0583845265
   1081,  0.414465547, 0.0943714231, -0.0565657169
   1082,  0.404799789, 0.0946690589, -0.0546590909
   1083,  0.395969748, 0.0959244594, -0.0519504584
   1084,  0.387969285, 0.0970499739, -0.049450472
   1085,   0.38086912, 0.0963030979, -0.0490283482
   1086,  0.373107374, 0.0932099596, -0.0506706275
   1087,  0.364918739, 0.0884880498, -0.0531300791
   1088,  0.349852681, 0.0869193226, -0.0517177209
   1089,  0.341325343, 0.0905943811, -0.0475387536
   1090,  0.333009839, 0.0932886079, -0.0438547917
   1091,   0.31774506,  0.096575357, -0.0381317586
   1092,  0.309797019, 0.0961770117, -0.0372011103
   1093,  0.301695883,  0.095066309, -0.0369350947
   1094,  0.293279141, 0.0936660469, -0.0368304402
   1095,  0.276500642, 0.0902963206, -0.0368703976
   1096,  0.260788113, 0.0933565423, -0.0316442139
   1097,  0.249003813, 0.0944213718, -0.0286846403
   1098,  0.238644227, 0.0947761536, -0.0266066343
   1099,  0.228611648, 0.0948098004, -0.0248869043
   1100,  0.218675673, 0.0946823061, -0.0233367048
   1101,  0.208747178, 0.0944931433, -0.0218451899
   1102,  0.198836789, 0.0943031982,  -0.02035602
   1103,    0.1890046, 0.0941392332, -0.0188545138
   1104,  0.179238766, 0.0939879566, -0.0173514299
   1105,  0.169426039, 0.0938025787, -0.0158707518
   1106,  0.159565687, 0.0935225934, -0.0144663658
   1107, 0.0909497514, 0.0916597992, -0.0045427517
   1108, 0.0815263689, 0.0921779275, -0.00251926831
   1109, 0.0717509612, 0.0918868482, -0.00112197874
   1110,  0.654290438,  0.099699527, -0.0912841484
   1111,  0.636299491,  0.101163656, -0.0864548832
   1112,  0.627045929,  0.100743078, -0.0854300708
   1113,  0.617435396,  0.099937737, -0.0848009437
   1114,  0.607013524, 0.0986153781, -0.0845885649
   1115,  0.596172512, 0.0960114598, -0.085539788
   1116,  0.585231423, 0.0989144146, -0.0805849209
   1117,  0.575424969,  0.100500353, -0.0770500973
   1118,  0.565850377,  0.101351239, -0.0743665844
   1119,  0.556429267,  0.101775721, -0.0722293109
   1120,  0.546925843,  0.101859905, -0.070520021
   1121,  0.537213206,  0.101440363, -0.0694355145
   1122,  0.527197778,  0.100284562, -0.0692042261
   1123,  0.516072869, 0.0988423303, -0.0690352991
   1124,  0.506175399,  0.101145208, -0.0645948574
   1125,  0.487610728,  0.101615265, -0.0608664826
   1126,  0.477857202,  0.101130299, -0.0598514415
   1127,  0.466665477, 0.0989970341, -0.0605482794
   1128,  0.456394672,  0.100231089, -0.0573616028
   1129,  0.446448237,  0.100742131, -0.0550586432
   1130,  0.436625928,  0.101003222, -0.0530786328
   1131,  0.426798582,  0.101141907, -0.0512498803
   1132,  0.416994065,  0.101278722, -0.0494261533
   1133,  0.407447428,  0.101503015, -0.0475313962
   1134,  0.398186564,  0.102009423, -0.0453085043
   1135,  0.388748258,  0.102127962, -0.0435629748
   1136,  0.379434526,  0.101381056, -0.0429780893
   1137,  0.369497955, 0.0995953903, -0.0435090028
   1138,  0.357897103, 0.0961979926, -0.0452708602
   1139,  0.346921206, 0.0984965935, -0.0409758575
   1140,  0.337238342, 0.0998484567, -0.0377828628
   1141, 1.15834191e-05, 0.0301918034, 0.000979881268
   1142, 0.0200326107, -0.000978204887, -0.00127659424
   1143, 0.0501194708, -0.0011088365, -0.00266611972
   1144, 0.0801946595, -0.00123229332, -0.00428928714
   1145,  0.110256366, -0.00134856778, -0.00614599837
   1146,  0.140302762, -0.00145765312, -0.00823614094
   1147,  0.170332059, -0.00155954249, -0.0105595896
   1148,  0.200342417, -0.00165422994, -0.0131162032
   1149,  0.230332032, -0.00174170954, -0.0159058273
   1150,  0.260299116, -0.00182197627, -0.018928295
   1151,  0.290241808, -0.00189502502, -0.0221834201
   1152,  0.320158362, -0.00196085148, -0.0256710108
   1153,  0.350046903, -0.0020194517, -0.0293908548
   1154,  0.379905701, -0.00207082229, -0.0333427265
   1155,  0.409732908, -0.00211495976, -0.037526384
   1156,  0.439526707, -0.00215186202, -0.0419415832
   1157,  0.469285369, -0.00218152627, -0.0465880521
   1158,  0.499007016, -0.00220395089, -0.0514655076
   1159,  0.528689921, -0.00221913471, -0.0565736592
   1160,  0.558332205, -0.00222707656, -0.0619122013
   1161,  0.587932169, -0.00222777622, -0.0674808025
   1162,  0.617487967, -0.00222123344, -0.0732791349
   1163,  0.646997869, -0.00220744871, -0.0793068483
   1164,  0.676460028, -0.0021864227, -0.0855635703
   1165,  0.705872715, -0.00215815706, -0.0920489356
   1166,  0.735234141, -0.00212265318, -0.0987625346
   1167,   0.76454252, -0.00207991316,  -0.10570398
   1168,  0.793796122, -0.00202993979, -0.112872846
   1169,  0.822993159, -0.00197273609, -0.120268703
   1170,  0.852131784, -0.00190830533, -0.127891093
   1171,  0.881210387, -0.00183665159, -0.135739565
   1172,   0.91022706, -0.00175777904, -0.143813655
   1173,  0.939180195, -0.00167169247, -0.152112842
   1174,  0.968067944, -0.00157839712, -0.160636663
   1175,  0.987288952, 0.0187905375, -0.166427851
   1176,  0.987293541, 0.0695473701, -0.166428119
   1177,  0.968043923,  0.100972071, -0.160740748
   1178,   0.93915838,  0.101099126, -0.152215868
   1179,  0.910207331,  0.101218775, -0.143915936
   1180,  0.881192625,  0.101331003, -0.135841444
   1181,  0.852115929,  0.101435818, -0.127992898
   1182,  0.822979033,  0.101533212, -0.120370746
   1183,  0.793783724,  0.101623163, -0.112975471
   1184,  0.764531732,  0.101705685,  -0.10580752
   1185,  0.735224843,  0.101780757, -0.0988673121
   1186,  0.705864847,  0.101848386, -0.0921552852
   1187,  0.676453531,  0.101908565, -0.0856718421
   1188,  0.646992624,  0.101961292, -0.0794173628
   1189,  0.617483974,  0.102006555, -0.0733922422
   1190,  0.587929368,  0.102044359, -0.0675968379
   1191,  0.558330536,  0.102074698, -0.0620314963
   1192,  0.528689265,  0.102097571, -0.056696564
   1193,  0.499007434,  0.102112986, -0.0515923612
   1194,   0.46928677,  0.102120921, -0.0467191935
   1195,  0.439529121,  0.102121398, -0.0420773551
   1196,  0.409736246,  0.102114402, -0.0376671329
   1197,  0.379909992,   0.10209994, -0.0334887952
   1198,  0.350052118,  0.102078013, -0.0295425858
   1199,  0.320164472,  0.102048621, -0.0258287508
   1200,  0.290248841,   0.10201177, -0.0223475136
   1201,  0.260307074,  0.101967447, -0.0190990865
   1202,  0.230340913,  0.101915672, -0.0160836633
   1203,  0.200352252,   0.10185644, -0.0133014275
   1204,  0.170342848,  0.101789758, -0.0107525494
   1205,  0.140314549,  0.101715624, -0.00843718089
   1206,  0.110269174,  0.101634055, -0.00635546446
   1207, 0.0802085325,  0.101545043, -0.00450752489
   1208, 0.0501344502,  0.101448596, -0.00289347465
   1209, 0.0200487468,  0.101344727, -0.00151341129
   1210,  0.762069404, 0.00323871383, -0.112711556
   1211,  0.877636373, 0.0882078558, -0.139600709
   1212,    0.3004556,  0.100328743, -0.0310162548
   1213,   0.85883534, 0.0911969319, -0.134113699
   1214,  0.318947434,  0.101118125, -0.0331422649
   1215,  0.130071461, 0.0926033631, -0.0103193503
   1216,  0.139885426, 0.0928969234, -0.0117135057
   1217,  0.120231166, 0.0923179314, -0.00891069416
   1218,  0.685238361, 0.0982577652, -0.0981463343
   1219,  0.704810262, 0.0984043404, -0.101274788
   1220,  0.868214607, 0.0899255127, -0.136714131
   1221,  0.309705466,  0.100918315, -0.0318407044
   1222,  0.695068955, 0.0983994603, -0.0996417999
   1223,  0.229205325, 0.00408775965, -0.0237942133
   1224,  0.506894529, -0.00208394974, -0.0634373128
   1225,  0.497089386, -0.00207242719, -0.0618002154
   1226,  0.487245768, -0.00206873682, -0.0601461343
   1227,  0.516625881, -0.00209359406, -0.0650644973
   1228, 0.00561596919, 0.0197864939, 0.00222858158
   1229,  0.978973746, 0.0411085375, -0.168585762
   1230,  0.555274725, -0.00194841635, -0.0717722327
   1231,  0.457676709, -0.00196146662, -0.0553059503
   1232,  0.958000839, 0.0897325426, -0.151970789
   1233,  0.980666399, 0.0903812647, -0.155272588
   1234,   0.73383534, 0.0977797806, -0.106845923
   1235,  0.849354208, 0.0921150222, -0.131747127
   1236, 0.0412559398, 0.0900403038, 0.00250588916
   1237,  0.545589983, -0.00211578817, -0.0699162856
   1238, 0.0309000667, 0.0902418643, 0.00440682285
   1239,    0.9653337,  0.089605175, -0.153303385
   1240,    0.4478212, -0.00188762462, -0.0537431389
   1241,  0.839786947, 0.0928460956, -0.129502371
   1242,  0.328095526,  0.100718595, -0.0351836197
   1243,  0.771639526, 0.00350988633, -0.114604056
   1244,  0.149705857, 0.0932116732, -0.0130867288
   1245,  0.976153374, 0.0332254656, -0.166512266
   1246,  0.477388084, -0.0020546848, -0.058503557
   1247,    0.9799155, 0.0490750931,   -0.1693483
   1248,  0.724179268, 0.0980848894, -0.104887523
   1249,  0.781191647, 0.00406961003, -0.116781056
   1250,  0.467529058, -0.00201559416, -0.0568942167
   1251,  0.714507997, 0.0982933119, -0.103029855
   1252,  0.790612996, 0.00497321226,  -0.11925631
   1253,  0.799989402, 0.00631022919, -0.122089155
   1254,  0.809647858, 0.00826673023, -0.125429586
   1255,  0.981779337, 0.0180581547, -0.161236286
   1256,  0.979876935, 0.0585230105, -0.168775365
   1257, 0.00676968461, 0.0275917947, -0.00147132901
   1258,  0.219325602, 0.00450859265, -0.022548411
   1259,  0.271805704, 0.0968163759, -0.030155126
   1260,  0.189607903, 0.00576297287, -0.0187464301
   1261,  0.291136742, 0.0995024666, -0.0304389894
   1262,  0.526313722, -0.00213476317, -0.0666419938
   1263,  0.979370832, 0.0685695261, -0.166516021
   1264,  0.110397175,    0.0920837, -0.00745667238
   1265,  0.980588734, 0.0240235273, -0.164026007
   1266,  0.281761169,  0.098522149, -0.0299875308
   1267,  0.209441096, 0.00492524309, -0.0212903339
   1268,  0.199538767, 0.00533862133, -0.0200190526
   1269,  0.535955667, -0.00217386009, -0.0682144389
   1270, 0.00732038263, 0.0381009541, -0.00449104887
   1271,  0.675125599, 0.0978980288, -0.0968419462
   1272, 0.00904562045, 0.0890800804, 0.00718672806
   1273,  0.010161859, 0.0805886686, 0.00156872382
   1274, 0.00666071428, 0.0107830251, 0.00782696996
   1275,  0.100615099, 0.00954049919, -0.00702791801
   1276,  0.982857585, 0.0100782933, -0.156078249
   1277, 0.0203878414, 0.0899036303, 0.00590996956
   1278,  0.100614637,  0.091853492, -0.00600599777
   1279,  0.388691604, -0.00106698635, -0.0448446833
   1280,  0.564859748, -0.00167028653, -0.0737550557
   1281,  0.496847838,  0.101680569, -0.0623344965
   1282,  0.645195007,  0.100813322, -0.0883943588
   1283,  0.978959978, 0.0794045851, -0.162079945
   1284,   0.96693188, 0.0838056654, -0.157581985
   1285,  0.922367573, 0.0866690502,  -0.14821972
   1286,  0.929517567, 0.0846509188, -0.150758326
   1287,  0.986257017, 0.0902194977,  -0.15634197
   1288, 0.0479638204,  0.080491215, -0.00484457752
   1289,  0.938278079, 0.0198929068, -0.154911771
   1290,  0.913678408, 0.0812902898, -0.150089532
   1291,  0.695012093, 0.0911626965, -0.106580697
   1292,  0.760174155,  0.010082636, -0.118568212
   1293,  0.505415738, 0.00446162233, -0.0707051978
   1294,  0.636404157, 0.0957865492, -0.0925323889
   1295,  0.657432795, 0.0921536908, -0.0994265079
   1296,  0.554827511, 0.0955116898, -0.0790821761
   1297,  0.502891183, 0.0957774073, -0.0700827911
   1298,  0.487033695, 0.0947102681, -0.0684533343
   1299,  0.434006453, 0.0938710943, -0.0603169575
   1300,  0.325349212, 0.0953874812, -0.0406021699
   1301,  0.284815282, 0.0919419006, -0.0369201563
   1302,  0.264333218, 0.0796622261, -0.0416897461
   1303,  0.177862942, 0.0861070901, -0.0233331844
   1304,   0.96473974, 0.0636823699, -0.165320516
   1305,    0.9263165, 0.0773501247,   -0.1542276
   1306,  0.965820193, 0.0571724139, -0.166575819
   1307,  0.388268739, 0.00536408229, -0.0518413298
   1308,  0.639335334,  0.090762198, -0.0975406319
   1309, 0.0146856597, 0.0141784977, 0.00404930161
   1310, 0.0462403782, 0.0724236742, -0.00817430206
   1311, 0.0194060374,  0.063240923, -0.00629377272
   1312,  0.090296343, 0.0184576791, -0.0113086896
   1313,  0.278037399, 0.00985381752, -0.0371666811
   1314,  0.912376821, 0.0748508722, -0.152988389
   1315,  0.916979909, 0.0721586719, -0.154817998
   1316,  0.956107378, 0.0671045035, -0.163023308
   1317,  0.260975152, 0.0713312775, -0.0447069369
   1318,  0.549817681, 0.0115974303, -0.0842824876
   1319,  0.523140311,    0.0123202, -0.0803138912
   1320,  0.881282508, 0.0253653824, -0.147872418
   1321,  0.937636793, 0.0283833649, -0.158519402
   1322,  0.767450333, 0.0169675704, -0.124503151
   1323,  0.635395348, 0.0171224251, -0.102352254
   1324,  0.618930638,  0.020483559, -0.101432808
   1325,  0.611409903,  0.022779122, -0.101288781
   1326,  0.810385525, 0.0360670984,  -0.13929452
   1327,  0.815078855,  0.044391349, -0.141361177
   1328,  0.890218854, 0.0619939342, -0.153121158
   1329,  0.884652436, 0.0530474149, -0.153242841
   1330,  0.280115664, 0.0847821012, -0.0414041989
   1331, 0.0369166918, 0.0660316199, -0.00859447662
   1332, 0.0448932685, 0.0643547103, -0.0103413528
   1333,  0.929882228, 0.0660590529, -0.158888161
   1334,   0.37884137, 0.0876455382, -0.0560842082
   1335,  0.384904057, 0.0924074724, -0.0533600263
   1336,  0.321033895,   0.08978948, -0.0447607152
   1337,  0.552877009,  0.088206999, -0.0849604532
   1338,   0.30401203, 0.0890571177, -0.0424578451
   1339,  0.623859107, 0.0847308412, -0.0992763191
   1340,  0.538958013, 0.0886465162, -0.0822946131
   1341,  0.797869503, 0.0777453184, -0.132425115
   1342,  0.397557408, 0.0120876068, -0.0589917079
   1343,   0.73195672, 0.0838677585, -0.118005365
   1344,  0.741028726, 0.0834065378, -0.119812928
   1345,  0.901829243, 0.0637648031, -0.154713303
   1346,  0.378697395,  0.013516794, -0.056820102
   1347,  0.392096609, 0.0892934203, -0.0570985153
   1348,  0.157879636, 0.0776269361, -0.0247797985
   1349, 0.0554532818, 0.0781205297, -0.00730755413
   1350,  0.951671064, 0.0638207719, -0.163090453
   1351,  0.951524079, 0.0580620877, -0.164062753
   1352,  0.950915933, 0.0498551279, -0.164472058
   1353, 0.0242388491, 0.0344366953, -0.00653532427
   1354,  0.546416163, 0.0193574615, -0.0886270031
   1355,  0.502665043, 0.0212263037, -0.0822267234
   1356,  0.772138178, 0.0251610167, -0.129406765
   1357,    0.6439116, 0.0249592327,  -0.10772761
   1358,  0.619753003, 0.0290901382, -0.105234057
   1359,  0.798294663,  0.036934346, -0.137444064
   1360,  0.267348647, 0.0606554002, -0.0485138483
   1361,  0.603231907, 0.0313179754, -0.103170589
   1362,  0.542711973, 0.0836153924, -0.0863160565
   1363,  0.848299563, 0.0366292745, -0.145800158
   1364,  0.874302089, 0.0355710685, -0.149945393
   1365,  0.722772837, 0.0758517683, -0.120651603
   1366,  0.739998639, 0.0755075663, -0.123699851
   1367,   0.94334656, 0.0681201294, -0.160586417
   1368,   0.94212091, 0.0510287844, -0.162982598
   1369,  0.644611061,   0.06121796, -0.111921117
   1370,  0.188490331, 0.0219640434, -0.0296751838
   1371,  0.179139853, 0.0224936809, -0.0283533353
   1372,  0.379639298, 0.0214566384, -0.061620757
   1373,  0.370429724, 0.0236268193, -0.0610909685
   1374,  0.110744104, 0.0272798929, -0.0188641753
   1375,  0.292412847, 0.0733525455, -0.0492538214
   1376,  0.483652323, 0.0532176793, -0.0857280642
   1377,  0.782536507, 0.0356587097, -0.134513572
   1378,  0.767467201, 0.0317674018, -0.130960956
   1379,  0.831713796, 0.0541934073,  -0.14426589
   1380,    0.5687989, 0.0367590673, -0.0987647995
   1381,  0.541581631, 0.0266632717, -0.0911834612
   1382,  0.611983001, 0.0395225137, -0.106553808
   1383,  0.643403232, 0.0325205885, -0.110286467
   1384,  0.565675199, 0.0708889961, -0.0961420462
   1385,  0.604939878, 0.0559159666, -0.105954684
   1386,   0.24906157, 0.0550108068, -0.0461226217
   1387,  0.275101513, 0.0509931147, -0.0506905094
   1388,  0.910599828, 0.0498537719, -0.157684758
   1389, 0.0627913848, 0.0691480413, -0.0120702125
   1390,  0.896701753, 0.0458350778, -0.155212581
   1391,  0.537827373, 0.0339538828, -0.092894651
   1392,  0.802821755, 0.0519633777, -0.139509588
   1393,  0.831165552, 0.0635034814, -0.142875731
   1394,  0.714379251, 0.0670429915, -0.122354046
   1395,  0.731302619, 0.0671910495, -0.125161693
   1396,  0.815734088, 0.0719681531, -0.137847617
   1397,  0.558743656, 0.0774008334, -0.0923461467
   1398, 0.0330200307, 0.0340769328, -0.00792285614
   1399, 0.0495139323, 0.0463765375, -0.0126125645
   1400,  0.299989849, 0.0819119886, -0.0464732796
   1401,  0.794101596,  0.054081019,  -0.13794142
   1402,   0.74686873,  0.066686593, -0.127919137
   1403,  0.232535794, 0.0577241965, -0.0430735759
   1404,  0.561256647, 0.0645184666, -0.0972182602
   1405,  0.342307329, 0.0385227352, -0.0609736592
   1406,  0.333549142, 0.0527986549, -0.0604782179
   1407,  0.391705006, 0.0676843673, -0.0678645372
   1408,   0.13921909, 0.0656697527, -0.0259050038
   1409,  0.533385456, 0.0448749177, -0.0939746276
   1410,  0.197681263, 0.0306070074, -0.0346577838
   1411,  0.178150028, 0.0304492675, -0.031318672
   1412,  0.282516241, 0.0419275276, -0.0514316149
   1413,  0.472584397, 0.0442622341, -0.0836859047
   1414,  0.855978131, 0.0422777571, -0.148028284
   1415,  0.383939922, 0.0359064676, -0.0674525201
   1416,  0.714548469, 0.0584812649, -0.124117263
   1417,  0.731904507,  0.058293324, -0.127063572
   1418,  0.745597899, 0.0595437922, -0.129193604
   1419,  0.239296794, 0.0468976423, -0.0445921123
   1420,  0.321405411, 0.0607738271, -0.0575932786
   1421, 0.0396344848, 0.0347545408, -0.00920640491
   1422, 0.0476849563, 0.0382353179, -0.0113128452
   1423,  0.677473366, 0.0417747386, -0.117910959
   1424,   0.70223248, 0.0472505875, -0.122547425
   1425, 0.0541778505, 0.0372959413, -0.0122232344
   1426, 0.0799500942, 0.0578052886, -0.0173782557
   1427, 0.0705546513, 0.0377866775, -0.0150780817
   1428,  0.750352323, 0.0572246015, -0.130298853
   1429,  0.310240388, 0.0380076729, -0.0554785542
   1430,  0.274472833, 0.0346022733, -0.0487125292
   1431,  0.175342888, 0.0574034825, -0.0334835649
   1432,  0.315525979, 0.0582290292, -0.0569811538
   1433,   0.23081854, 0.0485796556, -0.043225307
   1434,  0.153615803, 0.0616262816, -0.0292000044
   1435,  0.146824524, 0.0620620809, -0.0279758722
   1436,  0.744424284, 0.0556781441, -0.129456908
   1437,  0.747696579, 0.0537991375, -0.130146787
   1438, 0.0898625776, 0.0477512181, -0.0194700323
*Element, type=S3T
 1, 1287, 1233,  947
 2, 1408, 1435,  165
 3,  217,  402,  403
 4,  239,  423,  424
 5,  292,  992,  993
 6,  228,  227,  412
 7,  241,  249,  250
 8,  300,  301,  191
 9,  468,  391, 1404
10,  396,  463,  462
11,  349,  348,  509
12,  360,  359,  498
13, 1436, 1418,  408
14,  790,  698,  697
15, 1368,  433,  605
16,  425,  604,  433
17,  434,  603,  604
18,  469,  569,  570
19,  555,  642,  643
20,  491,  492,  547
21,  550,  549,  637
22, 1378,  589,  678
23,  606,  605,  696
24, 1247,  430, 1229
25, 1294, 1308, 1060
26, 1325,  663,  757
27, 1085, 1335, 1084
28, 1362,  988, 1340
29, 1411,  623, 1371
30, 1412,  545,  546
31, 1416,  406,  454
32, 1417,  407,  452
33, 1436,  408,  451
34,  412,  447, 1401
35, 1427,  512,  525
36, 1437,  451,  450
37, 1437, 1436,  451
38, 1428, 1437,  450
*Element, type=S4RT
  39,   10,  797,  796,    9
  40,    9,  796,  795, 1142
  41, 1274,  700, 1228,  793
  42,  793, 1228,    4,    5
  43,  793,    5,    7, 1274
  44,  701,  795,  796,  702
  45, 1309,  701,  609,  700
  46, 1309,  794,  795,  701
  47, 1257, 1141,    4, 1228
  48,  701,  702,  610,  609
  49,  703,  611,  610,  702
  50,  703,  704,  612,  611
  51,  704,  705,  613,  612
  52,  706,  707,  615,  614
  53, 1312,  616,  615,  707
  54,  617,  708,  709, 1374
  55,  710,  618, 1374,  709
  56,  618,  710,  711,  619
  57,  619,  711,  712,  620
  58,  620,  712,  713,  621
  59,  621,  713,  714,  622
  60,  622,  714,  715,  623
  61,  715,  716, 1371,  623
  62, 1371, 1370,  624, 1411
  63,  717,  718,  625, 1410
  64,  718,  719,  626,  625
  65,  626,  719,  720,  627
  66,  627,  720,  721,  628
  67,  628,  721,  722,  629
  68,  722,  723,  630,  629
  69,  723,  724,  631,  630
  70,  724,  725,  632,  631
  71,  725,  726,  633,  632
  72,  726,  727,  634,  633
  73,  727,  728,  635,  634
  74,  636,  728,  729,  730
  75,  730,  731,  637,  636
  76,  638,  731,  732,  639
  77,  639,  732,  733,  640
  78,  733,  734, 1373,  640
  79, 1373, 1372,  641,  553
  80,  735,  736,  643,  642
  81,  736,  737,  644,  643
  82,  737,  738,  645,  644
  83,  738,  739,  646,  645
  84,  739,  740,  647,  646
  85,  740,  741,  648,  647
  86,  741,  742,  649,  648
  87,  742,  743,  650,  649
  88,  743,  744,  651,  650
  89,  744,  745,  652,  651
  90,  652,  745,  746,  653
  91,  746, 1355,  654,  653
  92,  747,  748,  656,  655
  93,  656,  748,  749,  657
  94, 1381,  749,  750, 1354
  95, 1381, 1354,  751,  658
  96,  751,  752,  659,  658
  97,  752,  753, 1380,  659
  98,  753,  754,  660, 1380
  99,  754,  755,  661,  660
 100,  756,  662,  755,  849
 101,  757,  663,  756,  850
 102,  664, 1325, 1324, 1358
 103,  758, 1323,  666,  665
 104,  759,  760,  667, 1357
 105,  760,  761,  668,  667
 106,  761,  762,  669,  668
 107,  762,  763,  670,  669
 108,  763,  764,  671,  670
 109,  764,  765,  672,  671
 110,  765,  766,  673,  672
 111,  766,  767,  674,  673
 112,  767,  768,  675,  674
 113,  768,  769,  676,  675
 114,  769,  770,  677,  676
 115,  770,  771,  678,  677
 116,  771, 1322,  679,  678
 117,  772,  773,  680, 1356
 118,  773,  774,  681,  680
 119,  774,  775,  682,  681
 120,  776,  683,  775,  870
 121,  777,  684,  776,  871
 122,  685,  777,  778,  686
 123,  686,  778,  779,  687
 124,  687,  779,  780,  688
 125,  688,  780,  781,  689
 126,  689,  781,  782,  690
 127,  690,  782,  783, 1320
 128,  784,  691, 1320,  783
 129,  691,  784,  785,  692
 130,  692,  785,  786,  693
 131,  693,  786,  787,  694
 132,  694,  787,  788,  695
 133,  695,  788, 1289, 1321
 134,  697,  696,  789,  790
 135,  698,  790,  885,  791
 136,  792,  699,  698,  791
 137, 1265,   76, 1245,  699
 138, 1245,   76,   77, 1229
 139,  608, 1245, 1229,  430
 140,   79, 1256, 1247,   78
 141,  429,  430, 1247, 1256
 142,  245,  246,  244, 1304
 143,  949,  248,  247, 1232
 144,  950,  949,   85, 1178
 145, 1039,  951,   86,   87
 146, 1039,   87,  952, 1285
 147,  953, 1040, 1041,  954
 148, 1041,   88,   89,  955
 149,  961, 1042, 1043,  962
 150,  962, 1043, 1044,  963
 151,  963, 1044, 1045,  964
 152,  964, 1045, 1046,  965
 153,  965, 1046, 1047,  966
 154,  966, 1047, 1048,  967
 155,  967, 1048, 1049,  968
 156,  968, 1049, 1050,  969
 157,  969, 1050, 1051,  970
 158, 1052,  970, 1051, 1234
 159, 1052, 1053,  971, 1343
 160, 1053, 1054,  972,  971
 161, 1054, 1055,  973,  972
 162,  975,  974, 1291, 1056
 163, 1056, 1057,  976,  975
 164, 1058,  977, 1057, 1271
 165,  978, 1295, 1059,  979
 166, 1059, 1060, 1308,  979
 167,  980, 1308, 1294, 1061
 168, 1339,  981,  280,  279
 169, 1339, 1062, 1063,  981
 170, 1063, 1064,  982,  981
 171, 1065,  983, 1064, 1115
 172,  984, 1065, 1066,  985
 173,  985, 1066, 1067,  986
 174, 1067, 1068,  987,  986
 175, 1068, 1296, 1337,  987
 176, 1069, 1070, 1340,  988
 177, 1071,  989, 1340, 1070
 178, 1071, 1072,  990,  989
 179, 1073,  991, 1072, 1123
 180, 1074,  992, 1073, 1297
 181, 1074, 1298,  993,  992
 182,  994, 1075, 1076,  995
 183, 1077,  995, 1076, 1127
 184, 1077, 1078,  997,  996
 185, 1079,  998,  997, 1078
 186, 1079, 1299,  999,  998
 187, 1080, 1081, 1001, 1000
 188, 1001, 1081, 1082, 1002
 189, 1082, 1083, 1347, 1002
 190, 1083, 1084, 1335, 1347
 191, 1003, 1334, 1004,  303
 192, 1086, 1087, 1004, 1334
 193,  304, 1004, 1087, 1005
 194, 1088, 1005, 1087, 1138
 195, 1006, 1088, 1089, 1007
 196, 1007, 1089, 1090, 1008
 197, 1300, 1336, 1008, 1090
 198, 1009, 1091, 1092, 1010
 199, 1092, 1093, 1338, 1010
 200, 1093, 1094, 1011, 1338
 201, 1330, 1012, 1301, 1095
 202, 1096, 1014, 1095, 1259
 203, 1015, 1096, 1097, 1016
 204, 1016, 1097, 1098, 1017
 205, 1017, 1098, 1099, 1018
 206, 1018, 1099, 1100, 1019
 207, 1019, 1100, 1101, 1020
 208, 1020, 1101, 1102, 1021
 209, 1021, 1102, 1103, 1022
 210,  137, 1104, 1103,  136
 211, 1022, 1103, 1104, 1303
 212, 1104, 1105, 1023, 1303
 213, 1105, 1106, 1024, 1023
 214, 1216, 1205,  140, 1215
 215, 1031, 1107, 1108, 1032
 216,  145, 1034, 1109,  144
 217, 1034,  145, 1208, 1035
 218, 1236, 1035, 1208,  146
 219,  335, 1035, 1288, 1349
 220,  341,  342, 1332, 1331
 221,  516,  515,  342,  341
 222,  522,  523,  515,  516
 223, 1421,  523,  522, 1398
 224, 1142,  795,  794,    8
 225, 1143,  798,  797,   10
 226,  703,  797,  798,  704
 227,  702,  796,  797,  703
 228,   11,  799,  798, 1143
 229,  704,  798,  799,  705
 230, 1312,  802, 1275,  708
 231,  708, 1275,  803,  709
 232, 1145,  803, 1275,   14
 233,   15,  804,  803, 1145
 234,  804,   15,   16,  805
 235,  805,   16, 1146,  806
 236,  806,  712,  711,  805
 237,  805,  711,  710,  804
 238,  804,  710,  709,  803
 239,  802,   13,   14, 1275
 240,   13,  802,  801, 1144
 241,  706,  800,  801,  707
 242,  705,  799,  800,  706
 243,   12,  800,  799,   11
 244,  800,   12, 1144,  801
 245,   17,  807,  806, 1146
 246,  807,  713,  712,  806
 247,   18,  808,  807,   17
 248,  809, 1147,   19,  810
 249, 1147,  809,  808,   18
 250, 1268, 1260,   20, 1148
 251,  812, 1268, 1267,  813
 252,  718,  717,  812,  813
 253,  811,  812,  717, 1370
 254,  811,  716,  810, 1260
 255, 1268,  812,  811, 1260
 256,  813, 1267, 1258,  814
 257,  719,  718,  813,  814
 258, 1223, 1258,   22, 1149
 259,  720,  719,  814,  815
 260,  815, 1223,  887,  816
 261,  814, 1258, 1223,  815
 262,  721,  720,  815,  816
 263,  888,  887,   23,   24
 264,  721,  816,  817,  722
 265,  725,  724,  819, 1313
 266,  725, 1313,  820,  726
 267,  893,  892, 1151,   27
 268,   27,   28,  894,  893
 269, 1152,  895,  894,   28
 270,  896,   29,   30,  897
 271,  897,   30, 1153,  898
 272,   31,  899,  898, 1153
 273,   32,  900,  899,   31
 274, 1154,  901,  900,   32
 275,  828,  900,  901,  829
 276, 1346,  734,  828,  829
 277,  733,  827,  828,  734
 278,  899,  900,  828,  827
 279,   26, 1151,  892,  891
 280,  891,  890,   25,   26
 281,  818,  889,  890,  819
 282,  888,  817,  816,  887
 283,  817,  888,  889,  818
 284,  889,  888,   24, 1150
 285,  890,  889, 1150,   25
 286,  938, 1279,   33,   34
 287,  902, 1307, 1279,  938
 288, 1154,   33, 1279,  901
 289, 1307,  829,  901, 1279
 290,  736,  735,  830, 1342
 291,  735, 1372, 1346,  830
 292,  939,  938,   34, 1155
 293,  938,  939,  903,  902
 294,  902, 1342,  830, 1307
 295,  737,  736, 1342,  831
 296,  940,  939, 1155,   35
 297,  904,  903,  939,  940
 298,  832,  831,  903,  904
 299,  738,  737,  831,  832
 300,  941,  940,   35,   36
 301,  905,  904,  940,  941
 302,  833,  832,  904,  905
 303,  833,  739,  738,  832
 304,  836,  742,  741,  835
 305,  837,  836,  908,  909
 306, 1231, 1250,  909,  908
 307, 1224, 1225, 1158,   41
 308,  913, 1293, 1224, 1227
 309,  841,  840,  912, 1293
 310, 1355,  746,  840,  841
 311,  746,  745,  839,  840
 312,  839,  911,  912,  840
 313,   40, 1158, 1225, 1226
 314, 1226, 1246,   39,   40
 315, 1157,   39, 1246, 1250
 316,  835,  741,  740,  834
 317,  834,  740,  739,  833
 318,  905,  906,  834,  833
 319,  941,  942,  906,  905
 320,  942,  941,   36, 1156
 321, 1250, 1231,   38, 1157
 322,  942, 1240,  907,  906
 323,  835,  834,  906,  907
 324,   41,   42, 1227, 1224
 325,  842,  841, 1293,  913
 326,  748,  747,  842, 1319
 327,  841,  842,  747, 1355
 328,   42, 1159, 1262, 1227
 329,  843, 1319,  914,  915
 330,  749,  748, 1319,  843
 331,  752,  751,  845,  846
 332,  847,  846,  919,  920
 333,  920,  919,  943,  944
 334,   46, 1161,  944,  943
 335,  945,  944, 1161,   47
 336,  946,  945,   47,   48
 337, 1162,   49,  924,  923
 338,  946,  923,  850,  922
 339,  850,  923,  851,  757
 340,  850,  756,  849,  922
 341,  921,  922,  849,  848
 342,  945,  946,  922,  921
 343,  923,  946,   48, 1162
 344,   45,   46,  943, 1280
 345,  918,  919,  846,  845
 346, 1354,  750,  844, 1318
 347,  751, 1354, 1318,  845
 348,  750,  749,  843,  844
 349,  915,  916,  844,  843
 350, 1227, 1262,  914,  913
 351, 1262, 1269,  915,  914
 352, 1269, 1237,  916,  915
 353,   43,   44, 1237, 1269
 354,  845, 1318,  917,  918
 355,  916,  917, 1318,  844
 356,  924,  852,  851,  923
 357,  758, 1324,  851,  852
 358,  926,  925,   50, 1163
 359,  925,  853,  852,  924
 360,  759, 1323,  853,  854
 361,  852,  853, 1323,  758
 362,  762,  761,  856,  857
 363,  929,  857,  856,  928
 364,  930,  929, 1164,   53
 365,   53,   54,  931,  930
 366,   54, 1165,  932,  931
 367,   55,  933,  932, 1165
 368,  933,  861,  860,  932
 369,  767,  766,  861,  862
 370,  860,  861,  766,  765
 371,  859,  860,  765,  764
 372,  859,  931,  932,  860
 373,   51,   52,  928,  927
 374,   52, 1164,  929,  928
 375,  855,  856,  761,  760
 376,  854,  855,  760,  759
 377,  853,  925,  926,  854
 378,  927,  926, 1163,   51
 379,  927,  855,  854,  926
 380,  933,   55,   56,  934
 381,  934,  862,  861,  933
 382,  768,  767,  862,  863
 383,  934,   56, 1166,  935
 384,  935,  863,  862,  934
 385,  769,  768,  863,  864
 386, 1322,  772, 1356,  679
 387, 1167, 1210,  937,   58
 388,   61, 1253, 1252, 1168
 389, 1249, 1252,  868,  867
 390, 1169,  871, 1254,   62
 391, 1253, 1254,  870,  869
 392,   62, 1254, 1253,   61
 393,  871,  776,  870, 1254
 394,  869,  870,  775,  774
 395, 1252, 1253,  869,  868
 396, 1243, 1249,  867,  866
 397,  936,  937,  865,  864
 398,  864,  863,  935,  936
 399,   57,  936,  935, 1166
 400,  936,   57,   58,  937
 401,  872,  778,  777,  871
 402,   63,   64,  873,  872
 403, 1169,   63,  872,  871
 404,  873,  779,  778,  872
 405,  781,  780,  874,  875
 406,  876,  875,   65,   66
 407,   66, 1171,  877,  876
 408,  878,   67,   68,  879
 409,  879,   68, 1172,  880
 410,  786,  785,  879,  880
 411,  785,  784,  878,  879
 412,  875,  874, 1170,   65
 413,  874,  873,   64, 1170
 414,   69,  881,  880, 1172
 415,  787,  786,  880,  881
 416,  881,   69,   70,  882
 417,  788,  787,  881,  882
 418,  882,   70, 1173,  883
 419, 1289,  788,  882,  883
 420, 1289,  883,  884,  789
 421,   71,  884,  883, 1173
 422,  790,  789,  884,  885
 423,   75, 1175, 1255, 1276
 424,   73,   74,   75, 1276
 425,  791,  885,  886,  792
 426,   72,  885,  884,   71
 427,  885,   72, 1174,  886
 428,  246, 1284,  247,  244
 429,  948, 1283,  947, 1233
 430, 1263, 1176,   80, 1283
 431,   85,  949, 1232,   84
 432,   80,   81,  947, 1283
 433, 1283,  948, 1284,  246
 434,   81,   82, 1287,  947
 435, 1040,  952,   87, 1179
 436, 1041, 1040, 1179,   88
 437,   93, 1042, 1241,   92
 438,   90, 1220, 1211, 1180
 439,  957, 1220, 1213,  958
 440, 1042,   93, 1182, 1043
 441,   92, 1241, 1235, 1181
 442,   94, 1044, 1043, 1182
 443, 1044,   94,   95, 1045
 444, 1183, 1046, 1045,   95
 445,   96, 1047, 1046, 1183
 446, 1047,   96,   97, 1048
 447, 1049, 1184,   98, 1050
 448, 1050,   98,   99, 1051
 449, 1052, 1234, 1248, 1053
 450, 1051,   99, 1185, 1234
 451, 1053, 1248, 1251, 1054
 452,  101, 1251, 1248,  100
 453,  102, 1222, 1219, 1186
 454, 1222,  102,  103, 1218
 455, 1282, 1060, 1059, 1110
 456, 1112, 1111,  106,  107
 457, 1113, 1112,  107, 1189
 458, 1114, 1113, 1189,  108
 459, 1115, 1114,  108,  109
 460, 1115, 1064, 1063, 1114
 461, 1063, 1062, 1113, 1114
 462, 1113, 1062, 1061, 1112
 463, 1294, 1111, 1112, 1061
 464,  105, 1188, 1282, 1110
 465, 1111, 1282, 1188,  106
 466, 1116, 1115,  109, 1190
 467, 1065, 1115, 1116, 1066
 468, 1117, 1116, 1190,  110
 469, 1066, 1116, 1117, 1067
 470, 1118, 1117,  110,  111
 471, 1067, 1117, 1118, 1068
 472, 1121, 1070, 1069, 1120
 473, 1122, 1121,  113, 1192
 474, 1123, 1122, 1192,  114
 475,  114,  115, 1124, 1123
 476, 1073, 1123, 1124, 1297
 477, 1123, 1072, 1071, 1122
 478, 1071, 1070, 1121, 1122
 479,  112,  113, 1121, 1120
 480, 1120, 1069, 1296, 1119
 481, 1068, 1118, 1119, 1296
 482, 1119, 1118,  111, 1191
 483, 1120, 1119, 1191,  112
 484, 1281, 1124,  115, 1193
 485, 1297, 1124, 1281, 1074
 486, 1129, 1128,  118,  119
 487, 1130, 1129,  119, 1195
 488, 1131, 1130, 1195,  120
 489, 1299, 1079, 1129, 1130
 490, 1131, 1080, 1299, 1130
 491, 1129, 1079, 1078, 1128
 492, 1128, 1078, 1077, 1127
 493, 1128, 1127, 1194,  118
 494,  117, 1194, 1127, 1126
 495, 1126, 1127, 1076, 1075
 496, 1075, 1298, 1125, 1126
 497, 1126, 1125,  116,  117
 498, 1132, 1131,  120,  121
 499, 1132, 1081, 1080, 1131
 500, 1084, 1083, 1134, 1135
 501, 1136, 1135,  123, 1197
 502, 1137, 1136, 1197,  124
 503, 1138, 1137,  124,  125
 504, 1139, 1138,  125, 1198
 505, 1088, 1138, 1139, 1089
 506, 1138, 1087, 1086, 1137
 507, 1085, 1136, 1137, 1086
 508, 1085, 1084, 1135, 1136
 509,  122,  123, 1135, 1134
 510, 1082, 1133, 1134, 1083
 511, 1082, 1081, 1132, 1133
 512, 1133, 1132,  121, 1196
 513, 1134, 1133, 1196,  122
 514, 1140, 1139, 1198,  126
 515, 1089, 1139, 1140, 1090
 516, 1242, 1140,  126,  127
 517, 1090, 1140, 1242, 1300
 518,  127, 1199, 1214, 1242
 519, 1092, 1221, 1212, 1093
 520, 1201,  132, 1097, 1096
 521, 1096, 1259,  131, 1201
 522, 1094, 1261, 1266, 1301
 523, 1200,  130, 1266, 1261
 524, 1212, 1221,  128,  129
 525, 1221, 1214, 1199,  128
 526,  129, 1200, 1261, 1212
 527,  132,  133, 1098, 1097
 528, 1101, 1100,  134,  135
 529, 1102, 1101,  135, 1203
 530, 1103, 1102, 1203,  136
 531, 1104,  137, 1204, 1105
 532, 1106,  138,  139, 1244
 533, 1244,  139, 1205, 1216
 534,  138, 1106, 1105, 1204
 535, 1029, 1028, 1217, 1264
 536, 1107, 1031, 1030, 1278
 537,  142,  143, 1107, 1278
 538, 1207, 1108, 1107,  143
 539,  144, 1109, 1108, 1207
 540, 1032, 1108, 1109, 1033
 541,  147, 1209, 1277, 1238
 542,  337, 1037, 1038,  338
 543,  338,  153, 1311,  154
 544,  340, 1311,  339,  517
 545,  521,  518,  520, 1353
 546,  520,  609,  610, 1353
 547, 1038, 1277, 1272, 1273
 548,  152,  339, 1311,  153
 549,  519,  518,  339,  152
 550,  519, 1270,  520,  518
 551,  609,  520, 1270, 1257
 552, 1273,  153,  338, 1038
 553,    6,    1,  152,  153
 554,  152,    1,    2,  519
 555,  519,    2,    3, 1270
 556,    6,  153, 1273,  151
 557,  611, 1398, 1353,  610
 558,  155,  340,  341, 1331
 559,  340,  155,  154, 1311
 560,  155, 1331,  336,  337
 561,  154,  155,  337,  338
 562,  337,  336, 1036, 1037
 563,  524, 1425,  613,  525
 564, 1389,  156,  343,  344
 565,  344,  345,  158, 1389
 566,  345, 1426,  159,  158
 567,  346,  347,  161,  160
 568,  161,  347,  348,  162
 569,  348,  349,  163,  162
 570,  163,  349,  350,  164
 571,  164,  350,  351, 1408
 572,  166, 1434,  353,  354
 573,  166,  167,  324, 1348
 574,  504, 1431,  168,  354
 575,  356,  170,  169,  355
 576,  356,  357,  171,  170
 577,  358,  172,  171,  357
 578,  359,  172,  358,  499
 579,  359,  360,  173,  172
 580,  360, 1403,  174,  173
 581, 1386,  176,  175,  361
 582,  177,  362,  363, 1360
 583, 1360,  364,  179,  178
 584,  179,  364,  365,  180
 585,  180,  365,  366,  181
 586,  181,  366,  367,  182
 587,  367,  368, 1432,  182
 588,  183, 1420,  369,  184
 589,  370,  184,  369, 1406
 590,  371,  185,  370,  487
 591,  372,  186,  371,  486
 592,  187,  372,  373,  188
 593,  188,  373,  484,  374
 594, 1407,  190,  302,  189
 595,  191,  375,  376,  192
 596,  192,  376,  377,  193
 597,  193,  377,  378,  194
 598,  194,  378,  379,  195
 599,  195,  379,  380,  196
 600,  381,  196,  380,  478
 601,  197,  381,  382,  198
 602,  198,  382,  383,  199
 603,  384,  199,  383, 1376
 604,  385,  200,  384,  473
 605,  386,  201,  385,  472
 606,  387,  202,  386,  471
 607,  388,  203,  387,  471
 608,  388,  389,  204,  203
 609,  389,  390,  205,  204
 610, 1404,  391,  206, 1384
 611,  392,  206,  391,  467
 612,  393,  207,  392,  466
 613,  394,  208,  393,  465
 614,  209,  394, 1385,  395
 615,  396,  210,  395,  463
 616,  396,  397,  211,  210
 617,  397,  398,  212,  211
 618,  399, 1369,  398,  460
 619,  399,  400,  214, 1369
 620,  400,  401,  215,  214
 621,  401,  402,  216,  215
 622,  403,  404,  218,  217
 623,  404,  405,  219,  218
 624,  405,  406,  220,  219
 625,  221, 1394, 1416,  407
 626, 1417,  408,  222, 1395
 627,  222, 1402,  223, 1366
 628,  409,  410,  225,  224
 629,  410,  411,  226,  225
 630,  226,  411,  412,  227
 631,  228,  412, 1401,  413
 632,  413,  414,  229,  228
 633,  415,  230,  414,  444
 634, 1393,  415, 1379,  416
 635,  232,  416,  417,  233
 636,  233,  417,  418,  234
 637,  234,  418,  419,  235
 638,  420,  235,  419,  439
 639,  421,  236,  420,  438
 640, 1328,  237,  421, 1329
 641, 1328,  422, 1345,  238
 642,  423, 1345,  422,  435
 643,  424,  425, 1333,  240
 644, 1333,  426,  241,  250
 645, 1367,  242,  241,  426
 646, 1350, 1316,  243,  427
 647, 1306, 1304,  428,  431
 648,  156, 1389,  157, 1349
 649, 1035,  335,  334, 1034
 650,  336, 1310, 1288, 1036
 651, 1332,  343,  156, 1310
 652, 1349,  157,  334,  335
 653, 1310,  156, 1349, 1288
 654,  158,  159,  332,  333
 655,  333, 1033,  334,  157
 656,  332,  159,  160,  331
 657, 1033,  333,  332, 1032
 658, 1033, 1109, 1034,  334
 659,  160,  161,  330,  331
 660,  331, 1031, 1032,  332
 661,  160,  159, 1426,  346
 662,  161,  162,  329,  330
 663,  331,  330, 1030, 1031
 664,  162,  163,  328,  329
 665, 1030,  330,  329, 1029
 666, 1029, 1264, 1278, 1030
 667,  328,  163,  164,  327
 668,  329,  328, 1028, 1029
 669,  142, 1278, 1264, 1206
 670, 1028,  328,  327, 1027
 671, 1217,  141, 1206, 1264
 672,  165,  166, 1348,  325
 673,  327,  326, 1026, 1027
 674, 1215,  140,  141, 1217
 675, 1435, 1408,  351,  352
 676, 1026,  326,  325, 1025
 677, 1216, 1026, 1025, 1244
 678, 1434,  166,  165, 1435
 679,  324,  167,  168,  323
 680, 1106, 1244, 1025, 1024
 681,  323,  168,  169,  322
 682, 1023,  324,  323, 1303
 683, 1025,  325, 1348, 1024
 684,  354,  168,  167,  166
 685,  322,  169,  170,  321
 686,  322, 1022, 1303,  323
 687,  324, 1023, 1024, 1348
 688,  321,  170,  171,  320
 689, 1022,  322,  321, 1021
 690,  320,  171,  172,  319
 691,  320, 1020, 1021,  321
 692,  173,  318,  319,  172
 693, 1020,  320,  319, 1019
 694,  174,  317,  318,  173
 695,  318, 1018, 1019,  319
 696,  175,  316,  317,  174
 697, 1018,  318,  317, 1017
 698,  316,  175,  176,  315
 699,  316, 1016, 1017,  317
 700,  175,  174, 1403,  361
 701,  315,  176,  177, 1317
 702, 1016,  316,  315, 1015
 703, 1317,  178,  314, 1302
 704, 1014, 1302,  314, 1013
 705,  362,  177,  176, 1386
 706,  178,  179,  313,  314
 707, 1013,  314,  313,  312
 708, 1014, 1096, 1015, 1302
 709, 1317, 1302, 1015,  315
 710,  177, 1360,  178, 1317
 711,  179,  180,  312,  313
 712, 1013,  312, 1012, 1330
 713, 1095, 1014, 1013, 1330
 714,  180,  181, 1375,  312
 715,  311, 1012,  312, 1375
 716, 1094, 1301, 1012, 1011
 717,  310, 1400,  311,  182
 718, 1010, 1338,  310,  309
 719, 1400, 1011, 1012,  311
 720,  308,  182,  183,  307
 721, 1338, 1011, 1400,  310
 722,  307,  183,  184,  306
 723,  308, 1008, 1336,  309
 724, 1009, 1010,  309, 1336
 725,  183,  182, 1432, 1420
 726,  185,  306,  184,  370
 727, 1008,  308,  307, 1007
 728,  186,  305,  185,  371
 729,  306, 1006, 1007,  307
 730,  187,  304,  186,  372
 731,  305, 1006,  306,  185
 732,  303,  187,  188,  189
 733,  304, 1005,  305,  186
 734, 1005, 1088, 1006,  305
 735,  303, 1004,  304,  187
 736,  302, 1003,  303,  189
 737,  189,  188,  374, 1407
 738,  191,  301,  190,  375
 739,  301, 1002,  302,  190
 740, 1335, 1334, 1003, 1347
 741,  300,  191,  192,  299
 742,  301,  300, 1001, 1002
 743,  302, 1002, 1347, 1003
 744,  299,  192,  193,  298
 745,  299, 1000, 1001,  300
 746,  298,  193,  194,  297
 747, 1000,  299,  298,  999
 748,  297,  194,  195,  296
 749,  298,  297,  998,  999
 750, 1080, 1000,  999, 1299
 751,  296,  195,  196,  295
 752,  998,  297,  296,  997
 753,  197,  295,  196,  381
 754,  296,  295,  996,  997
 755,  294,  197,  198,  293
 756,  294,  996,  295,  197
 757,  198,  199,  292,  293
 758,  293,  994,  995,  294
 759,  995, 1077,  996,  294
 760,  200,  292,  199,  384
 761,  293,  292,  993,  994
 762,  201,  291,  200,  385
 763,  291,  992,  292,  200
 764, 1075,  994,  993, 1298
 765,  202,  290,  201,  386
 766,  290,  991,  291,  201
 767,  203,  289,  202,  387
 768,  289,  990,  290,  202
 769,  991, 1073,  992,  291
 770,  203,  204,  288,  289
 771,  289,  288,  989,  990
 772,  990, 1072,  991,  290
 773,  204,  205, 1397,  287
 774,  988, 1362,  287, 1337
 775,  205, 1404, 1384, 1397
 776,  287, 1397,  987, 1337
 777, 1362, 1340,  989,  288
 778,  207,  284,  206,  392
 779,  986,  286,  285,  985
 780,  208,  283,  207,  393
 781,  985,  285,  284,  984
 782,  286,  986,  987, 1397
 783,  209,  282,  208,  394
 784,  283,  984,  284,  207
 785,  210,  281,  209,  395
 786,  282,  983,  283,  208
 787,  210,  211,  280,  281
 788,  281,  982,  282,  209
 789,  983, 1065,  984,  283
 790,  211,  212,  279,  280
 791,  281,  280,  981,  982
 792,  982, 1064,  983,  282
 793,  212,  213,  278,  279
 794,  277,  213, 1369,  214
 795,  279,  278,  980, 1339
 796, 1339,  980, 1061, 1062
 797,  213,  212,  398, 1369
 798,  214,  215,  276,  277
 799,  277,  979,  278,  213
 800, 1308,  980,  278,  979
 801,  215,  216,  275,  276
 802,  277,  276,  978,  979
 803,  217,  274,  216,  402
 804,  276,  275,  977,  978
 805, 1295,  978,  977, 1058
 806,  217,  218,  273,  274
 807,  274,  976,  275,  216
 808,  976, 1057,  977,  275
 809,  218,  219,  272,  273
 810,  274,  273,  975,  976
 811,  219,  220,  271,  272
 812,  273,  272,  974,  975
 813, 1055, 1291,  974,  973
 814,  406, 1416, 1394,  220
 815,  272,  271,  973,  974
 816,  221, 1395,  269, 1365
 817,  271,  270,  972,  973
 818, 1366,  223,  268, 1344
 819,  270, 1365,  971,  972
 820,  269, 1395,  222, 1366
 821,  223,  224,  267,  268
 822,  269, 1366, 1344, 1343
 823, 1343,  971, 1365,  269
 824, 1402,  222,  408, 1418
 825,  224,  225,  266,  267
 826,  969,  268,  267,  968
 827,  969,  970, 1344,  268
 828,  224,  223, 1402,  409
 829,  226,  265,  266,  225
 830,  968,  267,  266,  967
 831,  265,  226,  227,  264
 832,  967,  266,  265,  966
 833,  227,  228, 1341,  264
 834,  966,  265,  264,  965
 835,  229,  263, 1341,  228
 836, 1396,  229,  414,  230
 837,  963,  263,  262,  962
 838,  965,  264, 1341,  964
 839,  261,  230,  231,  260
 840,  962,  262,  261,  961
 841,  263,  963,  964, 1341
 842,  260,  231,  232,  259
 843,  961,  261,  260,  960
 844,  231,  230,  415, 1393
 845,  259,  232,  233,  258
 846,  960,  260,  259,  959
 847,  232,  231, 1393,  416
 848,  258,  233,  234,  257
 849,  959,  259,  258,  958
 850,  960, 1241, 1042,  961
 851,  257,  234,  235,  256
 852,  958,  258,  257,  957
 853,  236,  256,  235,  420
 854,  957,  257,  256,  956
 855, 1213,   91, 1181, 1235
 856,  237,  255,  236,  421
 857,  255,  956,  256,  236
 858, 1220,   90,   91, 1213
 859,  254,  237, 1328,  238
 860,  254,  955,  255,  237
 861, 1345,  252,  253,  238
 862,  253,  954,  254,  238
 863,  955,   89, 1180, 1211
 864,  956,  255,  955, 1211
 865,  253,  252,  953,  954
 866,  954, 1041,  955,  254
 867,  239,  252, 1345,  423
 868,  240, 1333,  250, 1305
 869, 1290,  251, 1285,  952
 870,  239,  424,  240, 1315
 871,  249,  241,  242,  248
 872, 1305, 1286, 1285,  251
 873,  952, 1040,  953, 1290
 874,  252, 1314, 1290,  953
 875,  248,  242,  243,  247
 876,  950,  951, 1286,  249
 877,  244,  247,  243, 1316
 878, 1304,  244, 1316,  428
 879,  427,  243,  242, 1367
 880, 1176, 1263, 1256,   79
 881,  950,  249,  248,  949
 882,  230,  261,  262, 1396
 883,  263,  229, 1396,  262
 884,  270,  271,  220, 1394
 885,  284,  285, 1384,  206
 886,  286, 1397, 1384,  285
 887,  288,  204,  287, 1362
 888,  309,  310,  182,  308
 889,  165,  325,  326, 1408
 890,  327,  164, 1408,  326
 891,  517,  339,  518,  521
 892,  517,  516,  341,  340
 893,  514,  342,  515, 1399
 894,  514,  513,  344,  343
 895,  513,  512,  345,  344
 896,  512,  511, 1426,  345
 897,  511, 1438,  346, 1426
 898,  510,  509,  348,  347
 899,  530,  508,  509,  529
 900,  349,  509,  508,  350
 901,  350,  508,  507,  351
 902,  351,  507,  506,  352
 903,  506,  505,  353,  352
 904,  505,  504,  354,  353
 905,  355, 1431,  504,  503
 906,  355,  503,  536,  502
 907,  502,  501,  356,  355
 908,  501,  500,  357,  356
 909,  499,  539,  498,  359
 910, 1419,  361, 1403, 1433
 911,  497,  496,  362, 1386
 912,  496,  495,  363,  362
 913,  363,  495,  494, 1387
 914,  363, 1387,  364, 1360
 915,  366,  365,  493,  492
 916,  492,  491,  367,  366
 917,  491,  490,  368,  367
 918,  490,  489, 1432,  368
 919, 1406,  369,  489,  488
 920,  487,  370, 1406,  488
 921,  486,  371,  487,  551
 922,  372,  486,  485,  373
 923,  373,  485,  554,  484
 924,  374,  484,  483,  375
 925,  375,  483,  482,  376
 926,  376,  482,  481,  377
 927,  377,  481,  480,  378
 928,  378,  480,  479,  379
 929,  479,  478,  380,  379
 930,  381,  478,  477,  382
 931,  382,  477,  476,  383
 932,  383,  476,  475, 1376
 933, 1376,  474,  473,  384
 934,  472,  385,  473,  567
 935,  471,  386,  472,  568
 936,  470,  388,  471, 1409
 937,  470,  469,  389,  388
 938,  469,  570,  390,  389
 939,  466,  392,  467,  572
 940,  465,  393,  466,  573
 941,  394,  465,  464, 1385
 942,  464,  463,  395, 1385
 943,  462,  461,  397,  396
 944,  461,  460,  398,  397
 945,  459,  399,  460,  578
 946,  459,  458,  400,  399
 947,  458,  457,  401,  400
 948,  403,  457, 1423,  456
 949,  456,  455,  404,  403
 950,  455, 1424,  405,  404
 951,  453,  454,  585,  586
 952,  407,  453,  586,  452
 953, 1428,  450,  410,  409
 954,  410,  450,  449,  411
 955,  448,  411,  449,  590
 956,  412,  411,  448,  447
 957, 1392,  413, 1401,  446
 958,  444,  414,  445, 1327
 959,  415,  444,  443, 1379
 960,  416, 1379,  442,  417
 961,  417,  442,  441,  418
 962,  418,  441,  440,  419
 963,  439,  419,  440, 1414
 964,  438,  420,  439,  598
 965,  421,  438,  437, 1329
 966, 1329,  436,  422, 1328
 967,  435,  422,  436, 1390
 968,  435,  602, 1388,  423
 969,  434,  604,  425,  424
 970,  432,  426,  433, 1368
 971, 1351,  432, 1368, 1352
 972, 1306,  431,  430,  429
 973,  342,  514,  343, 1332
 974,  347,  346, 1438,  510
 975,  500,  499,  358,  357
 976,  365,  364, 1387,  493
 977, 1432,  489,  369, 1420
 978,  402,  401,  457,  403
 979,  406,  405, 1424,  454
 980,  407, 1416,  454,  453
 981,  414,  413, 1392,  445
 982,  423, 1388,  434,  424
 983,  425,  433,  426, 1333
 984,  432,  427, 1367,  426
 985,  428, 1316, 1350, 1351
 986,   78, 1247, 1229,   77
 987, 1265, 1255, 1175,   76
 988,  430,  431,  607,  608
 989,  608,  698,  699, 1245
 990, 1352,  606,  607,  431
 991,  697,  698,  608,  607
 992,  606,  696,  697,  607
 993,  605,  433,  604,  695
 994,  605,  695, 1321,  696
 995,  694,  695,  604,  603
 996,  602,  603,  434, 1388
 997,  693,  694,  603,  602
 998, 1390,  436,  600,  601
 999,  693,  602,  601,  692
1000,  437,  600,  436, 1329
1001,  600,  691,  692,  601
1002, 1364,  437,  438,  598
1003,  599,  600,  437, 1364
1004,  599, 1320,  691,  600
1005,  598,  689,  690, 1364
1006,  597, 1414,  440, 1363
1007,  597,  688,  689,  598
1008,  441,  596, 1363,  440
1009, 1363,  687,  688,  597
1010,  596,  441,  442,  595
1011,  686,  687, 1363,  596
1012,  443,  595,  442, 1379
1013,  595,  443,  594,  685
1014,  595,  685,  686,  596
1015,  594,  443,  444, 1327
1016,  685,  594,  684,  777
1017,  593, 1326, 1327,  445
1018,  683,  776,  684, 1326
1019,  446,  593,  445, 1392
1020,  593,  446,  592, 1359
1021,  682,  775,  683, 1359
1022,  592,  446, 1401,  447
1023,  591,  592,  447,  448
1024,  592,  591,  682, 1359
1025,  591,  448,  590, 1377
1026, 1377,  681,  682,  591
1027, 1378, 1356,  680,  590
1028,  589,  449,  450,  588
1029, 1378,  678,  679, 1356
1030,  588,  450,  451,  587
1031,  677,  678,  589,  588
1032,  587,  451,  452,  586
1033,  587,  676,  677,  588
1034,  586,  675,  676,  587
1035,  584,  585,  454, 1424
1036,  585,  674,  675,  586
1037,  455,  583,  584, 1424
1038,  584,  673,  674,  585
1039,  583,  455,  456,  582
1040,  583,  672,  673,  584
1041,  582,  456, 1423,  581
1042,  582,  671,  672,  583
1043,  580,  457,  458,  579
1044,  457,  580,  581, 1423
1045,  581,  670,  671,  582
1046,  579,  458,  459,  578
1047,  580,  669,  670,  581
1048,  579,  668,  669,  580
1049,  577,  460,  461,  576
1050,  578,  460,  577, 1383
1051,  667,  668,  579,  578
1052,  576,  461,  462,  575
1053,  666, 1357, 1383,  577
1054,  575,  462,  463, 1382
1055,  576,  665,  666,  577
1056,  464,  574, 1382,  463
1057, 1358,  575, 1382,  664
1058,  665, 1358, 1324,  758
1059,  465,  573,  574,  464
1060, 1324, 1325,  757,  851
1061,  663, 1361,  662,  756
1062,  573,  466,  572,  661
1063,  662,  573,  661,  755
1064,  571,  467,  391,  468
1065,  572,  467,  571, 1380
1066,  468,  390,  570,  571
1067,  569,  469,  470, 1409
1068,  569,  658,  659,  570
1069, 1391,  569, 1409,  657
1070,  568,  657, 1409,  471
1071,  656,  657,  568,  655
1072,  568,  472,  567,  655
1073,  566,  567,  473,  474
1074,  654,  655,  567,  566
1075,  747,  655,  654, 1355
1076,  565,  566,  474,  564
1077,  654,  566,  565,  653
1078,  475,  564,  474, 1376
1079,  564,  652,  653,  565
1080, 1413,  475,  476,  477
1081,  563,  651,  652,  564
1082,  562,  650,  651,  563
1083,  562,  477,  478,  561
1084,  561,  649,  650,  562
1085,  561,  478,  479,  560
1086,  560,  648,  649,  561
1087,  560,  479,  480,  559
1088,  648,  560,  559,  647
1089,  481,  558,  559,  480
1090,  646,  647,  559,  558
1091,  558,  481,  482,  557
1092,  645,  646,  558,  557
1093,  483,  556,  557,  482
1094,  644,  645,  557,  556
1095,  483,  484,  555,  556
1096,  643,  644,  556,  555
1097,  555,  484,  554, 1415
1098,  553,  554,  485,  552
1099, 1415,  641,  642,  555
1100,  642,  641, 1372,  735
1101,  552,  485,  486,  551
1102,  640, 1373,  553,  552
1103,  639,  640,  552,  551
1104,  488,  550,  638, 1405
1105,  551, 1405,  638,  639
1106,  550,  488,  489,  549
1107,  638,  550,  637,  731
1108,  549,  489,  490, 1429
1109,  637,  549,  548,  636
1110,  636,  548,  635,  728
1111,  548,  549, 1429,  635
1112,  547,  634,  635, 1429
1113,  546,  492,  493, 1412
1114,  547,  492,  546,  634
1115,  633,  634,  546,  545
1116,  545, 1412,  494, 1430
1117,  494, 1412,  493, 1387
1118,  632,  633,  545, 1430
1119,  494,  495,  544, 1430
1120,  495,  496,  543,  544
1121,  630,  631,  544,  543
1122,  496,  497,  542,  543
1123,  629,  630,  543,  542
1124, 1419,  497, 1386,  361
1125,  542,  497, 1419,  541
1126,  628,  629,  542,  541
1127, 1433,  540,  541, 1419
1128,  627,  628,  541,  540
1129,  499,  500,  538,  539
1130,  498,  539,  540, 1433
1131,  540,  539,  626,  627
1132,  500,  501,  537,  538
1133,  626,  539,  538,  625
1134,  537,  501,  502,  536
1135,  624, 1410,  537,  536
1136,  536,  503, 1411,  624
1137, 1370, 1371,  716,  811
1138,  535,  503,  504,  505
1139,  503,  535,  623, 1411
1140,  622,  623,  535,  534
1141,  534,  535,  505,  506
1142,  533,  534,  506,  532
1143,  621,  622,  534,  533
1144,  532,  506,  507,  531
1145,  620,  621,  533,  532
1146,  531,  507,  508,  530
1147,  619,  620,  532,  531
1148,  618,  619,  531,  530
1149,  617, 1374,  529,  528
1150,  529,  509,  510,  528
1151,  616,  617,  528,  527
1152,  708,  617,  616, 1312
1153, 1438,  527,  528,  510
1154,  615,  616,  527,  526
1155,  526,  527, 1438,  511
1156,  614,  615,  526, 1427
1157,  525,  512,  513,  524
1158,  511,  512, 1427,  526
1159,  614, 1427,  525,  613
1160,  705,  706,  614,  613
1161,  513,  514, 1399,  524
1162, 1399,  515,  523, 1422
1163, 1425, 1422,  612,  613
1164,  516,  517,  521,  522
1165,  522,  521, 1353, 1398
1166,  530,  529, 1374,  618
1167,  538,  537, 1410,  625
1168,  554,  553,  641, 1415
1169,  571,  570,  659, 1380
1170,  574,  573,  662, 1361
1171,  665,  576,  575, 1358
1172, 1327, 1326,  684,  594
1173,  707,  801,  802, 1312
1174,  808,  714,  713,  807
1175,   19,   20, 1260,  810
1176,  715,  809,  810,  716
1177,  714,  808,  809,  715
1178,  723,  722,  817,  818
1179,  818,  819,  724,  723
1180,  820,  821,  727,  726
1181,  822,  728,  727,  821
1182,  822,  823,  729,  728
1183,  823,  824,  730,  729
1184,  824,  825,  731,  730
1185,  825,  826,  732,  731
1186,  826,  827,  733,  732
1187,  836,  837,  743,  742
1188,  837,  838,  744,  743
1189,  838,  839,  745,  744
1190,  846,  847,  753,  752
1191,  847,  848,  754,  753
1192,  848,  849,  755,  754
1193,  763,  762,  857,  858
1194,  858,  859,  764,  763
1195,  770,  769,  864,  865
1196,  865, 1292,  771,  770
1197,  866,  867,  772, 1322
1198,  773,  772,  867,  868
1199,  868,  869,  774,  773
1200,  779,  873,  874,  780
1201,  875,  876,  782,  781
1202,  876,  877,  783,  782
1203,  877,  878,  784,  783
1204,  886, 1276, 1255,  792
1205,  819,  890,  891, 1313
1206,  892,  820, 1313,  891
1207,  820,  892,  893,  821
1208,  821,  893,  894,  822
1209,  822,  894,  895,  823
1210,  823,  895,  896,  824
1211,  896,  897,  825,  824
1212,  897,  898,  826,  825
1213,  898,  899,  827,  826
1214,  908,  836,  835,  907
1215,   37,   38, 1231, 1240
1216,  837,  909,  910,  838
1217,  838,  910,  911,  839
1218, 1280, 1230, 1160,   45
1219, 1230, 1280,  918,  917
1220,  919,  918, 1280,  943
1221,  848,  847,  920,  921
1222,  928,  856,  855,  927
1223,  857,  929,  930,  858
1224,  858,  930,  931,  859
1225,  937, 1210, 1292,  865
1226, 1210, 1243,  866, 1292
1227, 1168, 1252, 1249,   60
1228,   67,  878,  877, 1171
1229,   29,  896,  895, 1152
1230,  829, 1307,  830, 1346
1231,  902,  903,  831, 1342
1232, 1156,   37, 1240,  942
1233,  913,  914, 1319,  842
1234, 1159,   43, 1269, 1262
1235,  944,  945,  921,  920
1236,   49,   50,  925,  924
1237,   59, 1243, 1210, 1167
1238, 1213, 1235,  959,  958
1239, 1048,   97, 1184, 1049
1240,  104,  105, 1110, 1058
1241, 1058, 1110, 1059, 1295
1242, 1271, 1187,  104, 1058
1243, 1218,  103, 1187, 1271
1244, 1060, 1282, 1111, 1294
1245, 1099, 1098,  133, 1202
1246, 1100, 1099, 1202,  134
1247, 1222, 1218, 1056, 1291
1248, 1281, 1125, 1298, 1074
1249, 1149,   23,  887, 1223
1250,   44, 1160, 1230, 1237
1251,  886, 1174,   73, 1276
1252, 1178,   86,  951,  950
1253, 1186, 1219, 1251,  101
1254, 1193,  116, 1125, 1281
1255, 1037, 1238, 1277, 1038
1256,  956, 1211, 1220,  957
1257, 1336, 1300, 1091, 1009
1258, 1300, 1242, 1214, 1091
1259, 1027, 1215, 1217, 1028
1260, 1216, 1215, 1027, 1026
1261, 1056, 1218, 1271, 1057
1262, 1219, 1055, 1054, 1251
1263, 1221, 1092, 1091, 1214
1264, 1055, 1219, 1222, 1291
1265, 1225, 1224, 1293,  912
1266,  912,  911, 1226, 1225
1267, 1226,  911,  910, 1246
1268, 1257, 1228,  700,  609
1269, 1237, 1230,  917,  916
1270, 1231,  908,  907, 1240
1271, 1177,  948, 1233,   83
1272, 1234, 1185,  100, 1248
1273,  960,  959, 1235, 1241
1274, 1036, 1236, 1238, 1037
1275, 1236, 1036, 1288, 1035
1276,  148, 1272, 1277, 1209
1277, 1284, 1239, 1232,  247
1278, 1243,   59,   60, 1249
1279,  910,  909, 1250, 1246
1280,  245,  429, 1256, 1263
1281,   21,   22, 1258, 1267
1282, 1259, 1095, 1301, 1266
1283,  130,  131, 1259, 1266
1284, 1261, 1094, 1093, 1212
1285,  246,  245, 1263, 1283
1286,  792, 1255, 1265,  699
1287, 1148,   21, 1267, 1268
1288, 1270,    3, 1141, 1257
1289,    8,  794, 1274,    7
1290,   82,   83, 1233, 1287
1291,   84, 1232, 1239, 1177
1292,  147, 1238, 1236,  146
1293,  150, 1272,  148,  149
1294,  948, 1177, 1239, 1284
1295, 1274,  794, 1309,  700
1296, 1272,  150,  151, 1273
1297,  951, 1039, 1285, 1286
1298,  250,  249, 1286, 1305
1299, 1289,  789,  696, 1321
1300, 1292,  866, 1322,  771
1301, 1337, 1296, 1069,  988
1302, 1310,  336, 1331, 1332
1303,  245, 1304, 1306,  429
1304, 1305,  251, 1315,  240
1305, 1314,  252,  239, 1315
1306,  251, 1290, 1314, 1315
1307,  599, 1364,  690, 1320
1308, 1323,  759, 1357,  666
1309,  663, 1325,  664, 1361
1310, 1326,  593, 1359,  683
1311, 1334, 1335, 1085, 1086
1312,  970, 1052, 1343, 1344
1313,  427,  432, 1351, 1350
1314,  431,  428, 1351, 1352
1315, 1383, 1357,  667,  578
1316, 1361,  664, 1382,  574
1317, 1365,  270, 1394,  221
1318, 1368,  605,  606, 1352
1319, 1370,  717, 1410,  624
1320,  734, 1346, 1372, 1373
1321, 1377,  590,  680,  681
1322, 1378,  590,  449,  589
1323, 1381,  658,  569, 1391
1324, 1381, 1391,  657,  749
1325, 1389,  158,  333,  157
1326, 1390,  601,  602,  435
1327, 1395,  221,  407, 1417
1328, 1421, 1398,  611,  612
1329,  360,  498, 1433, 1403
1330, 1404,  205,  390,  468
1331,  487,  488, 1405,  551
1332, 1407,  374,  375,  190
1333,  563,  564,  475, 1413
1334,  563, 1413,  477,  562
1335, 1414,  597,  598,  439
1336,  572, 1380,  660,  661
1337,  409, 1402, 1418, 1428
1338, 1421,  612, 1422,  523
1339, 1399, 1422, 1425,  524
1340,  311, 1375,  181,  182
1341, 1428, 1418, 1436, 1437
1342,  490,  491,  547, 1429
1343, 1430,  544,  631,  632
1344,  169,  168, 1431,  355
1345,  452,  451,  408, 1417
1346,  352,  353, 1434, 1435
*Nset, nset=Set-1, generate
    1,  1438,     1
*Elset, elset=Set-1, generate
    1,  1346,     1
** Section: CompositeSection-1
*Shell Section, elset=Set-1, composite
0.0025, 3, Aluminum, 0., a
0.0025, 3, FakeSMA, 0., b
*End Part
**  
**
** ASSEMBLY
**
*Assembly, name=Assembly
**  
*Instance, name="SMAStrip (Nitinol)", part="SMAStrip (Nitinol)"
*End Instance
**  
*Nset, nset=Fixed-Set, instance="SMAStrip (Nitinol)"
    1,    2,    3,    4,    5,    6,    7,  149,  150,  151, 1141
*Elset, elset=Fixed-Set, instance="SMAStrip (Nitinol)"
   42,   43,   47,  553,  554,  555,  556, 1288, 1293, 1296
*Nset, nset=Set-Temp, instance="SMAStrip (Nitinol)", generate
    1,  1438,     1
*Elset, elset=Set-Temp, instance="SMAStrip (Nitinol)", generate
    1,  1346,     1
*Elset, elset=_All-Surfaces_SPOS, internal, instance="SMAStrip (Nitinol)", generate
    1,  1346,     1
*Surface, type=ELEMENT, name=All-Surfaces
_All-Surfaces_SPOS, SPOS
*End Assembly
*Amplitude, name=InstantVacuum
             0.,              1.,              4.,              1.
** 
** MATERIALS
** 
*Material, name=Aluminum
*Conductivity
100.,
*Density
2300.,
*Elastic
 7e+10, 0.3
*Expansion
0.,
*Specific Heat
900.,
*Material, name=FakeSMA
*Conductivity
50.,
*Density
6450.,
*Elastic
 9e+10, 0.3
*Expansion
 0.0025,
*Specific Heat
800.,
** 
** PHYSICAL CONSTANTS
** 
*Physical Constants, absolute zero=0., stefan boltzmann=5.67e-08
** 
** PREDEFINED FIELDS
** 
** Name: Temp0   Type: Temperature Using Field: TempField_Initial
*Initial Conditions, type=TEMPERATURE
"SMAStrip (Nitinol)".1, 6.08165, 6.08165, 6.08165, 6.08165, 6.08165
"SMAStrip (Nitinol)".2, 6.0844, 6.0844, 6.0844, 6.0844, 6.0844
"SMAStrip (Nitinol)".3, 6.07866, 6.07866, 6.07866, 6.07866, 6.07866
"SMAStrip (Nitinol)".4, 6.05204, 6.05204, 6.05204, 6.05204, 6.05204
"SMAStrip (Nitinol)".5, 6.0437, 6.0437, 6.0437, 6.0437, 6.0437
"SMAStrip (Nitinol)".6, 6.07085, 6.07085, 6.07085, 6.07085, 6.07085
"SMAStrip (Nitinol)".7, 6.03557, 6.03557, 6.03557, 6.03557, 6.03557
"SMAStrip (Nitinol)".8, 6.03577, 6.03577, 6.03577, 6.03577, 6.03577
"SMAStrip (Nitinol)".9, 6.03083, 6.03083, 6.03083, 6.03083, 6.03083
"SMAStrip (Nitinol)".10, 6.02897, 6.02897, 6.02897, 6.02897, 6.02897
"SMAStrip (Nitinol)".11, 6.025, 6.025, 6.025, 6.025, 6.025
"SMAStrip (Nitinol)".12, 6.0228, 6.0228, 6.0228, 6.0228, 6.0228
"SMAStrip (Nitinol)".13, 6.01816, 6.01816, 6.01816, 6.01816, 6.01816
"SMAStrip (Nitinol)".14, 6.0159, 6.0159, 6.0159, 6.0159, 6.0159
"SMAStrip (Nitinol)".15, 6.00853, 6.00853, 6.00853, 6.00853, 6.00853
"SMAStrip (Nitinol)".16, 6.00466, 6.00466, 6.00466, 6.00466, 6.00466
"SMAStrip (Nitinol)".17, 5.99674, 5.99674, 5.99674, 5.99674, 5.99674
"SMAStrip (Nitinol)".18, 5.9924, 5.9924, 5.9924, 5.9924, 5.9924
"SMAStrip (Nitinol)".19, 5.98339, 5.98339, 5.98339, 5.98339, 5.98339
"SMAStrip (Nitinol)".20, 5.97857, 5.97857, 5.97857, 5.97857, 5.97857
"SMAStrip (Nitinol)".21, 5.96761, 5.96761, 5.96761, 5.96761, 5.96761
"SMAStrip (Nitinol)".22, 5.9611, 5.9611, 5.9611, 5.9611, 5.9611
"SMAStrip (Nitinol)".23, 5.94479, 5.94479, 5.94479, 5.94479, 5.94479
"SMAStrip (Nitinol)".24, 5.93428, 5.93428, 5.93428, 5.93428, 5.93428
"SMAStrip (Nitinol)".25, 5.90671, 5.90671, 5.90671, 5.90671, 5.90671
"SMAStrip (Nitinol)".26, 5.88855, 5.88855, 5.88855, 5.88855, 5.88855
"SMAStrip (Nitinol)".27, 5.83997, 5.83997, 5.83997, 5.83997, 5.83997
"SMAStrip (Nitinol)".28, 5.80897, 5.80897, 5.80897, 5.80897, 5.80897
"SMAStrip (Nitinol)".29, 5.73022, 5.73022, 5.73022, 5.73022, 5.73022
"SMAStrip (Nitinol)".30, 5.68267, 5.68267, 5.68267, 5.68267, 5.68267
"SMAStrip (Nitinol)".31, 5.57234, 5.57234, 5.57234, 5.57234, 5.57234
"SMAStrip (Nitinol)".32, 5.50905, 5.50905, 5.50905, 5.50905, 5.50905
"SMAStrip (Nitinol)".33, 5.37895, 5.37895, 5.37895, 5.37895, 5.37895
"SMAStrip (Nitinol)".34, 5.31212, 5.31212, 5.31212, 5.31212, 5.31212
"SMAStrip (Nitinol)".35, 5.18468, 5.18468, 5.18468, 5.18468, 5.18468
"SMAStrip (Nitinol)".36, 5.12668, 5.12668, 5.12668, 5.12668, 5.12668
"SMAStrip (Nitinol)".37, 5.02941, 5.02941, 5.02941, 5.02941, 5.02941
"SMAStrip (Nitinol)".38, 4.99187, 4.99187, 4.99187, 4.99187, 4.99187
"SMAStrip (Nitinol)".39, 4.93977, 4.93977, 4.93977, 4.93977, 4.93977
"SMAStrip (Nitinol)".40, 4.92495, 4.92495, 4.92495, 4.92495, 4.92495
"SMAStrip (Nitinol)".41, 4.91877, 4.91877, 4.91877, 4.91877, 4.91877
"SMAStrip (Nitinol)".42, 4.92803, 4.92803, 4.92803, 4.92803, 4.92803
"SMAStrip (Nitinol)".43, 4.97149, 4.97149, 4.97149, 4.97149, 4.97149
"SMAStrip (Nitinol)".44, 5.00502, 5.00502, 5.00502, 5.00502, 5.00502
"SMAStrip (Nitinol)".45, 5.0935, 5.0935, 5.0935, 5.0935, 5.0935
"SMAStrip (Nitinol)".46, 5.14701, 5.14701, 5.14701, 5.14701, 5.14701
"SMAStrip (Nitinol)".47, 5.26818, 5.26818, 5.26818, 5.26818, 5.26818
"SMAStrip (Nitinol)".48, 5.33316, 5.33316, 5.33316, 5.33316, 5.33316
"SMAStrip (Nitinol)".49, 5.4649, 5.4649, 5.4649, 5.4649, 5.4649
"SMAStrip (Nitinol)".50, 5.52927, 5.52927, 5.52927, 5.52927, 5.52927
"SMAStrip (Nitinol)".51, 5.64648, 5.64648, 5.64648, 5.64648, 5.64648
"SMAStrip (Nitinol)".52, 5.69784, 5.69784, 5.69784, 5.69784, 5.69784
"SMAStrip (Nitinol)".53, 5.78435, 5.78435, 5.78435, 5.78435, 5.78435
"SMAStrip (Nitinol)".54, 5.8188, 5.8188, 5.8188, 5.8188, 5.8188
"SMAStrip (Nitinol)".55, 5.87532, 5.87532, 5.87532, 5.87532, 5.87532
"SMAStrip (Nitinol)".56, 5.89601, 5.89601, 5.89601, 5.89601, 5.89601
"SMAStrip (Nitinol)".57, 5.92693, 5.92693, 5.92693, 5.92693, 5.92693
"SMAStrip (Nitinol)".58, 5.9384, 5.9384, 5.9384, 5.9384, 5.9384
"SMAStrip (Nitinol)".59, 5.95604, 5.95604, 5.95604, 5.95604, 5.95604
"SMAStrip (Nitinol)".60, 5.96308, 5.96308, 5.96308, 5.96308, 5.96308
"SMAStrip (Nitinol)".61, 5.97521, 5.97521, 5.97521, 5.97521, 5.97521
"SMAStrip (Nitinol)".62, 5.98053, 5.98053, 5.98053, 5.98053, 5.98053
"SMAStrip (Nitinol)".63, 5.99007, 5.99007, 5.99007, 5.99007, 5.99007
"SMAStrip (Nitinol)".64, 5.99451, 5.99451, 5.99451, 5.99451, 5.99451
"SMAStrip (Nitinol)".65, 6.00269, 6.00269, 6.00269, 6.00269, 6.00269
"SMAStrip (Nitinol)".66, 6.00643, 6.00643, 6.00643, 6.00643, 6.00643
"SMAStrip (Nitinol)".67, 6.0128, 6.0128, 6.0128, 6.0128, 6.0128
"SMAStrip (Nitinol)".68, 6.01637, 6.01637, 6.01637, 6.01637, 6.01637
"SMAStrip (Nitinol)".69, 6.02141, 6.02141, 6.02141, 6.02141, 6.02141
"SMAStrip (Nitinol)".70, 6.02339, 6.02339, 6.02339, 6.02339, 6.02339
"SMAStrip (Nitinol)".71, 6.02653, 6.02653, 6.02653, 6.02653, 6.02653
"SMAStrip (Nitinol)".72, 6.02805, 6.02805, 6.02805, 6.02805, 6.02805
"SMAStrip (Nitinol)".73, 6.03114, 6.03114, 6.03114, 6.03114, 6.03114
"SMAStrip (Nitinol)".74, 6.03277, 6.03277, 6.03277, 6.03277, 6.03277
"SMAStrip (Nitinol)".75, 6.0383, 6.0383, 6.0383, 6.0383, 6.0383
"SMAStrip (Nitinol)".76, 6.06659, 6.06659, 6.06659, 6.06659, 6.06659
"SMAStrip (Nitinol)".77, 6.07884, 6.07884, 6.07884, 6.07884, 6.07884
"SMAStrip (Nitinol)".78, 6.08325, 6.08325, 6.08325, 6.08325, 6.08325
"SMAStrip (Nitinol)".79, 6.07929, 6.07929, 6.07929, 6.07929, 6.07929
"SMAStrip (Nitinol)".80, 6.05152, 6.05152, 6.05152, 6.05152, 6.05152
"SMAStrip (Nitinol)".81, 6.03722, 6.03722, 6.03722, 6.03722, 6.03722
"SMAStrip (Nitinol)".82, 6.0305, 6.0305, 6.0305, 6.0305, 6.0305
"SMAStrip (Nitinol)".83, 6.02895, 6.02895, 6.02895, 6.02895, 6.02895
"SMAStrip (Nitinol)".84, 6.02683, 6.02683, 6.02683, 6.02683, 6.02683
"SMAStrip (Nitinol)".85, 6.02594, 6.02594, 6.02594, 6.02594, 6.02594
"SMAStrip (Nitinol)".86, 6.02317, 6.02317, 6.02317, 6.02317, 6.02317
"SMAStrip (Nitinol)".87, 6.02121, 6.02121, 6.02121, 6.02121, 6.02121
"SMAStrip (Nitinol)".88, 6.01581, 6.01581, 6.01581, 6.01581, 6.01581
"SMAStrip (Nitinol)".89, 6.01292, 6.01292, 6.01292, 6.01292, 6.01292
"SMAStrip (Nitinol)".90, 6.00626, 6.00626, 6.00626, 6.00626, 6.00626
"SMAStrip (Nitinol)".91, 6.0027, 6.0027, 6.0027, 6.0027, 6.0027
"SMAStrip (Nitinol)".92, 5.99496, 5.99496, 5.99496, 5.99496, 5.99496
"SMAStrip (Nitinol)".93, 5.99077, 5.99077, 5.99077, 5.99077, 5.99077
"SMAStrip (Nitinol)".94, 5.98159, 5.98159, 5.98159, 5.98159, 5.98159
"SMAStrip (Nitinol)".95, 5.97658, 5.97658, 5.97658, 5.97658, 5.97658
"SMAStrip (Nitinol)".96, 5.96518, 5.96518, 5.96518, 5.96518, 5.96518
"SMAStrip (Nitinol)".97, 5.95841, 5.95841, 5.95841, 5.95841, 5.95841
"SMAStrip (Nitinol)".98, 5.94167, 5.94167, 5.94167, 5.94167, 5.94167
"SMAStrip (Nitinol)".99, 5.931, 5.931, 5.931, 5.931, 5.931
"SMAStrip (Nitinol)".100, 5.90236, 5.90236, 5.90236, 5.90236, 5.90236
"SMAStrip (Nitinol)".101, 5.88351, 5.88351, 5.88351, 5.88351, 5.88351
"SMAStrip (Nitinol)".102, 5.83335, 5.83335, 5.83335, 5.83335, 5.83335
"SMAStrip (Nitinol)".103, 5.80132, 5.80132, 5.80132, 5.80132, 5.80132
"SMAStrip (Nitinol)".104, 5.71925, 5.71925, 5.71925, 5.71925, 5.71925
"SMAStrip (Nitinol)".105, 5.67031, 5.67031, 5.67031, 5.67031, 5.67031
"SMAStrip (Nitinol)".106, 5.55787, 5.55787, 5.55787, 5.55787, 5.55787
"SMAStrip (Nitinol)".107, 5.49566, 5.49566, 5.49566, 5.49566, 5.49566
"SMAStrip (Nitinol)".108, 5.36544, 5.36544, 5.36544, 5.36544, 5.36544
"SMAStrip (Nitinol)".109, 5.30033, 5.30033, 5.30033, 5.30033, 5.30033
"SMAStrip (Nitinol)".110, 5.17711, 5.17711, 5.17711, 5.17711, 5.17711
"SMAStrip (Nitinol)".111, 5.1218, 5.1218, 5.1218, 5.1218, 5.1218
"SMAStrip (Nitinol)".112, 5.02673, 5.02673, 5.02673, 5.02673, 5.02673
"SMAStrip (Nitinol)".113, 4.98943, 4.98943, 4.98943, 4.98943, 4.98943
"SMAStrip (Nitinol)".114, 4.93788, 4.93788, 4.93788, 4.93788, 4.93788
"SMAStrip (Nitinol)".115, 4.92362, 4.92362, 4.92362, 4.92362, 4.92362
"SMAStrip (Nitinol)".116, 4.92001, 4.92001, 4.92001, 4.92001, 4.92001
"SMAStrip (Nitinol)".117, 4.93136, 4.93136, 4.93136, 4.93136, 4.93136
"SMAStrip (Nitinol)".118, 4.97902, 4.97902, 4.97902, 4.97902, 4.97902
"SMAStrip (Nitinol)".119, 5.01444, 5.01444, 5.01444, 5.01444, 5.01444
"SMAStrip (Nitinol)".120, 5.10625, 5.10625, 5.10625, 5.10625, 5.10625
"SMAStrip (Nitinol)".121, 5.16161, 5.16161, 5.16161, 5.16161, 5.16161
"SMAStrip (Nitinol)".122, 5.28599, 5.28599, 5.28599, 5.28599, 5.28599
"SMAStrip (Nitinol)".123, 5.35223, 5.35223, 5.35223, 5.35223, 5.35223
"SMAStrip (Nitinol)".124, 5.48515, 5.48515, 5.48515, 5.48515, 5.48515
"SMAStrip (Nitinol)".125, 5.54873, 5.54873, 5.54873, 5.54873, 5.54873
"SMAStrip (Nitinol)".126, 5.66563, 5.66563, 5.66563, 5.66563, 5.66563
"SMAStrip (Nitinol)".127, 5.71566, 5.71566, 5.71566, 5.71566, 5.71566
"SMAStrip (Nitinol)".128, 5.79936, 5.79936, 5.79936, 5.79936, 5.79936
"SMAStrip (Nitinol)".129, 5.83338, 5.83338, 5.83338, 5.83338, 5.83338
"SMAStrip (Nitinol)".130, 5.88599, 5.88599, 5.88599, 5.88599, 5.88599
"SMAStrip (Nitinol)".131, 5.9057, 5.9057, 5.9057, 5.9057, 5.9057
"SMAStrip (Nitinol)".132, 5.93543, 5.93543, 5.93543, 5.93543, 5.93543
"SMAStrip (Nitinol)".133, 5.94633, 5.94633, 5.94633, 5.94633, 5.94633
"SMAStrip (Nitinol)".134, 5.96327, 5.96327, 5.96327, 5.96327, 5.96327
"SMAStrip (Nitinol)".135, 5.9703, 5.9703, 5.9703, 5.9703, 5.9703
"SMAStrip (Nitinol)".136, 5.9823, 5.9823, 5.9823, 5.9823, 5.9823
"SMAStrip (Nitinol)".137, 5.98736, 5.98736, 5.98736, 5.98736, 5.98736
"SMAStrip (Nitinol)".138, 5.99619, 5.99619, 5.99619, 5.99619, 5.99619
"SMAStrip (Nitinol)".139, 6.00031, 6.00031, 6.00031, 6.00031, 6.00031
"SMAStrip (Nitinol)".140, 6.00834, 6.00834, 6.00834, 6.00834, 6.00834
"SMAStrip (Nitinol)".141, 6.01208, 6.01208, 6.01208, 6.01208, 6.01208
"SMAStrip (Nitinol)".142, 6.01902, 6.01902, 6.01902, 6.01902, 6.01902
"SMAStrip (Nitinol)".143, 6.022, 6.022, 6.022, 6.022, 6.022
"SMAStrip (Nitinol)".144, 6.02736, 6.02736, 6.02736, 6.02736, 6.02736
"SMAStrip (Nitinol)".145, 6.0297, 6.0297, 6.0297, 6.0297, 6.0297
"SMAStrip (Nitinol)".146, 6.03365, 6.03365, 6.03365, 6.03365, 6.03365
"SMAStrip (Nitinol)".147, 6.03527, 6.03527, 6.03527, 6.03527, 6.03527
"SMAStrip (Nitinol)".148, 6.03824, 6.03824, 6.03824, 6.03824, 6.03824
"SMAStrip (Nitinol)".149, 6.03969, 6.03969, 6.03969, 6.03969, 6.03969
"SMAStrip (Nitinol)".150, 6.0463, 6.0463, 6.0463, 6.0463, 6.0463
"SMAStrip (Nitinol)".151, 6.05518, 6.05518, 6.05518, 6.05518, 6.05518
"SMAStrip (Nitinol)".152, 6.08218, 6.08218, 6.08218, 6.08218, 6.08218
"SMAStrip (Nitinol)".153, 6.07211, 6.07211, 6.07211, 6.07211, 6.07211
"SMAStrip (Nitinol)".154, 6.07392, 6.07392, 6.07392, 6.07392, 6.07392
"SMAStrip (Nitinol)".155, 6.07433, 6.07433, 6.07433, 6.07433, 6.07433
"SMAStrip (Nitinol)".156, 6.06921, 6.06921, 6.06921, 6.06921, 6.06921
"SMAStrip (Nitinol)".157, 6.05777, 6.05777, 6.05777, 6.05777, 6.05777
"SMAStrip (Nitinol)".158, 6.07012, 6.07012, 6.07012, 6.07012, 6.07012
"SMAStrip (Nitinol)".159, 6.06956, 6.06956, 6.06956, 6.06956, 6.06956
"SMAStrip (Nitinol)".160, 6.0684, 6.0684, 6.0684, 6.0684, 6.0684
"SMAStrip (Nitinol)".161, 6.06669, 6.06669, 6.06669, 6.06669, 6.06669
"SMAStrip (Nitinol)".162, 6.06469, 6.06469, 6.06469, 6.06469, 6.06469
"SMAStrip (Nitinol)".163, 6.06335, 6.06335, 6.06335, 6.06335, 6.06335
"SMAStrip (Nitinol)".164, 6.06267, 6.06267, 6.06267, 6.06267, 6.06267
"SMAStrip (Nitinol)".165, 6.05501, 6.05501, 6.05501, 6.05501, 6.05501
"SMAStrip (Nitinol)".166, 6.05483, 6.05483, 6.05483, 6.05483, 6.05483
"SMAStrip (Nitinol)".167, 6.04849, 6.04849, 6.04849, 6.04849, 6.04849
"SMAStrip (Nitinol)".168, 6.05416, 6.05416, 6.05416, 6.05416, 6.05416
"SMAStrip (Nitinol)".169, 6.05171, 6.05171, 6.05171, 6.05171, 6.05171
"SMAStrip (Nitinol)".170, 6.04803, 6.04803, 6.04803, 6.04803, 6.04803
"SMAStrip (Nitinol)".171, 6.04474, 6.04474, 6.04474, 6.04474, 6.04474
"SMAStrip (Nitinol)".172, 6.04291, 6.04291, 6.04291, 6.04291, 6.04291
"SMAStrip (Nitinol)".173, 6.03614, 6.03614, 6.03614, 6.03614, 6.03614
"SMAStrip (Nitinol)".174, 6.03116, 6.03116, 6.03116, 6.03116, 6.03116
"SMAStrip (Nitinol)".175, 6.02633, 6.02633, 6.02633, 6.02633, 6.02633
"SMAStrip (Nitinol)".176, 6.02107, 6.02107, 6.02107, 6.02107, 6.02107
"SMAStrip (Nitinol)".177, 6.01499, 6.01499, 6.01499, 6.01499, 6.01499
"SMAStrip (Nitinol)".178, 5.99143, 5.99143, 5.99143, 5.99143, 5.99143
"SMAStrip (Nitinol)".179, 5.98163, 5.98163, 5.98163, 5.98163, 5.98163
"SMAStrip (Nitinol)".180, 5.96447, 5.96447, 5.96447, 5.96447, 5.96447
"SMAStrip (Nitinol)".181, 5.94035, 5.94035, 5.94035, 5.94035, 5.94035
"SMAStrip (Nitinol)".182, 5.89179, 5.89179, 5.89179, 5.89179, 5.89179
"SMAStrip (Nitinol)".183, 5.84265, 5.84265, 5.84265, 5.84265, 5.84265
"SMAStrip (Nitinol)".184, 5.81037, 5.81037, 5.81037, 5.81037, 5.81037
"SMAStrip (Nitinol)".185, 5.74094, 5.74094, 5.74094, 5.74094, 5.74094
"SMAStrip (Nitinol)".186, 5.65755, 5.65755, 5.65755, 5.65755, 5.65755
"SMAStrip (Nitinol)".187, 5.56516, 5.56516, 5.56516, 5.56516, 5.56516
"SMAStrip (Nitinol)".188, 5.52395, 5.52395, 5.52395, 5.52395, 5.52395
"SMAStrip (Nitinol)".189, 5.47694, 5.47694, 5.47694, 5.47694, 5.47694
"SMAStrip (Nitinol)".190, 5.40077, 5.40077, 5.40077, 5.40077, 5.40077
"SMAStrip (Nitinol)".191, 5.33012, 5.33012, 5.33012, 5.33012, 5.33012
"SMAStrip (Nitinol)".192, 5.28944, 5.28944, 5.28944, 5.28944, 5.28944
"SMAStrip (Nitinol)".193, 5.24559, 5.24559, 5.24559, 5.24559, 5.24559
"SMAStrip (Nitinol)".194, 5.20488, 5.20488, 5.20488, 5.20488, 5.20488
"SMAStrip (Nitinol)".195, 5.17046, 5.17046, 5.17046, 5.17046, 5.17046
"SMAStrip (Nitinol)".196, 5.14405, 5.14405, 5.14405, 5.14405, 5.14405
"SMAStrip (Nitinol)".197, 5.09502, 5.09502, 5.09502, 5.09502, 5.09502
"SMAStrip (Nitinol)".198, 5.08489, 5.08489, 5.08489, 5.08489, 5.08489
"SMAStrip (Nitinol)".199, 5.08028, 5.08028, 5.08028, 5.08028, 5.08028
"SMAStrip (Nitinol)".200, 5.06563, 5.06563, 5.06563, 5.06563, 5.06563
"SMAStrip (Nitinol)".201, 5.0767, 5.0767, 5.0767, 5.0767, 5.0767
"SMAStrip (Nitinol)".202, 5.10332, 5.10332, 5.10332, 5.10332, 5.10332
"SMAStrip (Nitinol)".203, 5.14301, 5.14301, 5.14301, 5.14301, 5.14301
"SMAStrip (Nitinol)".204, 5.16441, 5.16441, 5.16441, 5.16441, 5.16441
"SMAStrip (Nitinol)".205, 5.21557, 5.21557, 5.21557, 5.21557, 5.21557
"SMAStrip (Nitinol)".206, 5.31275, 5.31275, 5.31275, 5.31275, 5.31275
"SMAStrip (Nitinol)".207, 5.3801, 5.3801, 5.3801, 5.3801, 5.3801
"SMAStrip (Nitinol)".208, 5.45091, 5.45091, 5.45091, 5.45091, 5.45091
"SMAStrip (Nitinol)".209, 5.52277, 5.52277, 5.52277, 5.52277, 5.52277
"SMAStrip (Nitinol)".210, 5.59898, 5.59898, 5.59898, 5.59898, 5.59898
"SMAStrip (Nitinol)".211, 5.63986, 5.63986, 5.63986, 5.63986, 5.63986
"SMAStrip (Nitinol)".212, 5.68175, 5.68175, 5.68175, 5.68175, 5.68175
"SMAStrip (Nitinol)".213, 5.72048, 5.72048, 5.72048, 5.72048, 5.72048
"SMAStrip (Nitinol)".214, 5.79832, 5.79832, 5.79832, 5.79832, 5.79832
"SMAStrip (Nitinol)".215, 5.83283, 5.83283, 5.83283, 5.83283, 5.83283
"SMAStrip (Nitinol)".216, 5.8616, 5.8616, 5.8616, 5.8616, 5.8616
"SMAStrip (Nitinol)".217, 5.91112, 5.91112, 5.91112, 5.91112, 5.91112
"SMAStrip (Nitinol)".218, 5.93457, 5.93457, 5.93457, 5.93457, 5.93457
"SMAStrip (Nitinol)".219, 5.95427, 5.95427, 5.95427, 5.95427, 5.95427
"SMAStrip (Nitinol)".220, 5.97156, 5.97156, 5.97156, 5.97156, 5.97156
"SMAStrip (Nitinol)".221, 5.9998, 5.9998, 5.9998, 5.9998, 5.9998
"SMAStrip (Nitinol)".222, 6.01705, 6.01705, 6.01705, 6.01705, 6.01705
"SMAStrip (Nitinol)".223, 6.00897, 6.00897, 6.00897, 6.00897, 6.00897
"SMAStrip (Nitinol)".224, 6.01911, 6.01911, 6.01911, 6.01911, 6.01911
"SMAStrip (Nitinol)".225, 6.02932, 6.02932, 6.02932, 6.02932, 6.02932
"SMAStrip (Nitinol)".226, 6.03841, 6.03841, 6.03841, 6.03841, 6.03841
"SMAStrip (Nitinol)".227, 6.04255, 6.04255, 6.04255, 6.04255, 6.04255
"SMAStrip (Nitinol)".228, 6.04819, 6.04819, 6.04819, 6.04819, 6.04819
"SMAStrip (Nitinol)".229, 6.04672, 6.04672, 6.04672, 6.04672, 6.04672
"SMAStrip (Nitinol)".230, 6.05207, 6.05207, 6.05207, 6.05207, 6.05207
"SMAStrip (Nitinol)".231, 6.05166, 6.05166, 6.05166, 6.05166, 6.05166
"SMAStrip (Nitinol)".232, 6.05464, 6.05464, 6.05464, 6.05464, 6.05464
"SMAStrip (Nitinol)".233, 6.05926, 6.05926, 6.05926, 6.05926, 6.05926
"SMAStrip (Nitinol)".234, 6.06401, 6.06401, 6.06401, 6.06401, 6.06401
"SMAStrip (Nitinol)".235, 6.06902, 6.06902, 6.06902, 6.06902, 6.06902
"SMAStrip (Nitinol)".236, 6.06575, 6.06575, 6.06575, 6.06575, 6.06575
"SMAStrip (Nitinol)".237, 6.06215, 6.06215, 6.06215, 6.06215, 6.06215
"SMAStrip (Nitinol)".238, 6.0622, 6.0622, 6.0622, 6.0622, 6.0622
"SMAStrip (Nitinol)".239, 6.06846, 6.06846, 6.06846, 6.06846, 6.06846
"SMAStrip (Nitinol)".240, 6.06529, 6.06529, 6.06529, 6.06529, 6.06529
"SMAStrip (Nitinol)".241, 6.05858, 6.05858, 6.05858, 6.05858, 6.05858
"SMAStrip (Nitinol)".242, 6.05879, 6.05879, 6.05879, 6.05879, 6.05879
"SMAStrip (Nitinol)".243, 6.06277, 6.06277, 6.06277, 6.06277, 6.06277
"SMAStrip (Nitinol)".244, 6.0633, 6.0633, 6.0633, 6.0633, 6.0633
"SMAStrip (Nitinol)".245, 6.07097, 6.07097, 6.07097, 6.07097, 6.07097
"SMAStrip (Nitinol)".246, 6.05666, 6.05666, 6.05666, 6.05666, 6.05666
"SMAStrip (Nitinol)".247, 6.04934, 6.04934, 6.04934, 6.04934, 6.04934
"SMAStrip (Nitinol)".248, 6.04523, 6.04523, 6.04523, 6.04523, 6.04523
"SMAStrip (Nitinol)".249, 6.04432, 6.04432, 6.04432, 6.04432, 6.04432
"SMAStrip (Nitinol)".250, 6.05663, 6.05663, 6.05663, 6.05663, 6.05663
"SMAStrip (Nitinol)".251, 6.04674, 6.04674, 6.04674, 6.04674, 6.04674
"SMAStrip (Nitinol)".252, 6.05911, 6.05911, 6.05911, 6.05911, 6.05911
"SMAStrip (Nitinol)".253, 6.05538, 6.05538, 6.05538, 6.05538, 6.05538
"SMAStrip (Nitinol)".254, 6.04804, 6.04804, 6.04804, 6.04804, 6.04804
"SMAStrip (Nitinol)".255, 6.0507, 6.0507, 6.0507, 6.0507, 6.0507
"SMAStrip (Nitinol)".256, 6.05906, 6.05906, 6.05906, 6.05906, 6.05906
"SMAStrip (Nitinol)".257, 6.05236, 6.05236, 6.05236, 6.05236, 6.05236
"SMAStrip (Nitinol)".258, 6.0456, 6.0456, 6.0456, 6.0456, 6.0456
"SMAStrip (Nitinol)".259, 6.03994, 6.03994, 6.03994, 6.03994, 6.03994
"SMAStrip (Nitinol)".260, 6.03557, 6.03557, 6.03557, 6.03557, 6.03557
"SMAStrip (Nitinol)".261, 6.03201, 6.03201, 6.03201, 6.03201, 6.03201
"SMAStrip (Nitinol)".262, 6.02808, 6.02808, 6.02808, 6.02808, 6.02808
"SMAStrip (Nitinol)".263, 6.02685, 6.02685, 6.02685, 6.02685, 6.02685
"SMAStrip (Nitinol)".264, 6.02155, 6.02155, 6.02155, 6.02155, 6.02155
"SMAStrip (Nitinol)".265, 6.0159, 6.0159, 6.0159, 6.0159, 6.0159
"SMAStrip (Nitinol)".266, 6.00792, 6.00792, 6.00792, 6.00792, 6.00792
"SMAStrip (Nitinol)".267, 5.99816, 5.99816, 5.99816, 5.99816, 5.99816
"SMAStrip (Nitinol)".268, 5.98806, 5.98806, 5.98806, 5.98806, 5.98806
"SMAStrip (Nitinol)".269, 5.98945, 5.98945, 5.98945, 5.98945, 5.98945
"SMAStrip (Nitinol)".270, 5.96513, 5.96513, 5.96513, 5.96513, 5.96513
"SMAStrip (Nitinol)".271, 5.9498, 5.9498, 5.9498, 5.9498, 5.9498
"SMAStrip (Nitinol)".272, 5.93134, 5.93134, 5.93134, 5.93134, 5.93134
"SMAStrip (Nitinol)".273, 5.91104, 5.91104, 5.91104, 5.91104, 5.91104
"SMAStrip (Nitinol)".274, 5.88664, 5.88664, 5.88664, 5.88664, 5.88664
"SMAStrip (Nitinol)".275, 5.82631, 5.82631, 5.82631, 5.82631, 5.82631
"SMAStrip (Nitinol)".276, 5.79557, 5.79557, 5.79557, 5.79557, 5.79557
"SMAStrip (Nitinol)".277, 5.75791, 5.75791, 5.75791, 5.75791, 5.75791
"SMAStrip (Nitinol)".278, 5.66957, 5.66957, 5.66957, 5.66957, 5.66957
"SMAStrip (Nitinol)".279, 5.63137, 5.63137, 5.63137, 5.63137, 5.63137
"SMAStrip (Nitinol)".280, 5.59349, 5.59349, 5.59349, 5.59349, 5.59349
"SMAStrip (Nitinol)".281, 5.55643, 5.55643, 5.55643, 5.55643, 5.55643
"SMAStrip (Nitinol)".282, 5.47085, 5.47085, 5.47085, 5.47085, 5.47085
"SMAStrip (Nitinol)".283, 5.39615, 5.39615, 5.39615, 5.39615, 5.39615
"SMAStrip (Nitinol)".284, 5.32803, 5.32803, 5.32803, 5.32803, 5.32803
"SMAStrip (Nitinol)".285, 5.27841, 5.27841, 5.27841, 5.27841, 5.27841
"SMAStrip (Nitinol)".286, 5.23703, 5.23703, 5.23703, 5.23703, 5.23703
"SMAStrip (Nitinol)".287, 5.15721, 5.15721, 5.15721, 5.15721, 5.15721
"SMAStrip (Nitinol)".288, 5.11202, 5.11202, 5.11202, 5.11202, 5.11202
"SMAStrip (Nitinol)".289, 5.10543, 5.10543, 5.10543, 5.10543, 5.10543
"SMAStrip (Nitinol)".290, 5.06855, 5.06855, 5.06855, 5.06855, 5.06855
"SMAStrip (Nitinol)".291, 5.0437, 5.0437, 5.0437, 5.0437, 5.0437
"SMAStrip (Nitinol)".292, 5.04252, 5.04252, 5.04252, 5.04252, 5.04252
"SMAStrip (Nitinol)".293, 5.04769, 5.04769, 5.04769, 5.04769, 5.04769
"SMAStrip (Nitinol)".294, 5.0593, 5.0593, 5.0593, 5.0593, 5.0593
"SMAStrip (Nitinol)".295, 5.11361, 5.11361, 5.11361, 5.11361, 5.11361
"SMAStrip (Nitinol)".296, 5.13731, 5.13731, 5.13731, 5.13731, 5.13731
"SMAStrip (Nitinol)".297, 5.1696, 5.1696, 5.1696, 5.1696, 5.1696
"SMAStrip (Nitinol)".298, 5.20723, 5.20723, 5.20723, 5.20723, 5.20723
"SMAStrip (Nitinol)".299, 5.24921, 5.24921, 5.24921, 5.24921, 5.24921
"SMAStrip (Nitinol)".300, 5.2931, 5.2931, 5.2931, 5.2931, 5.2931
"SMAStrip (Nitinol)".301, 5.34111, 5.34111, 5.34111, 5.34111, 5.34111
"SMAStrip (Nitinol)".302, 5.41316, 5.41316, 5.41316, 5.41316, 5.41316
"SMAStrip (Nitinol)".303, 5.50593, 5.50593, 5.50593, 5.50593, 5.50593
"SMAStrip (Nitinol)".304, 5.59759, 5.59759, 5.59759, 5.59759, 5.59759
"SMAStrip (Nitinol)".305, 5.6892, 5.6892, 5.6892, 5.6892, 5.6892
"SMAStrip (Nitinol)".306, 5.77187, 5.77187, 5.77187, 5.77187, 5.77187
"SMAStrip (Nitinol)".307, 5.80312, 5.80312, 5.80312, 5.80312, 5.80312
"SMAStrip (Nitinol)".308, 5.82541, 5.82541, 5.82541, 5.82541, 5.82541
"SMAStrip (Nitinol)".309, 5.82832, 5.82832, 5.82832, 5.82832, 5.82832
"SMAStrip (Nitinol)".310, 5.86542, 5.86542, 5.86542, 5.86542, 5.86542
"SMAStrip (Nitinol)".311, 5.91017, 5.91017, 5.91017, 5.91017, 5.91017
"SMAStrip (Nitinol)".312, 5.94769, 5.94769, 5.94769, 5.94769, 5.94769
"SMAStrip (Nitinol)".313, 5.96911, 5.96911, 5.96911, 5.96911, 5.96911
"SMAStrip (Nitinol)".314, 5.97148, 5.97148, 5.97148, 5.97148, 5.97148
"SMAStrip (Nitinol)".315, 6.00156, 6.00156, 6.00156, 6.00156, 6.00156
"SMAStrip (Nitinol)".316, 6.00583, 6.00583, 6.00583, 6.00583, 6.00583
"SMAStrip (Nitinol)".317, 6.01063, 6.01063, 6.01063, 6.01063, 6.01063
"SMAStrip (Nitinol)".318, 6.01584, 6.01584, 6.01584, 6.01584, 6.01584
"SMAStrip (Nitinol)".319, 6.02147, 6.02147, 6.02147, 6.02147, 6.02147
"SMAStrip (Nitinol)".320, 6.02535, 6.02535, 6.02535, 6.02535, 6.02535
"SMAStrip (Nitinol)".321, 6.02907, 6.02907, 6.02907, 6.02907, 6.02907
"SMAStrip (Nitinol)".322, 6.0324, 6.0324, 6.0324, 6.0324, 6.0324
"SMAStrip (Nitinol)".323, 6.0342, 6.0342, 6.0342, 6.0342, 6.0342
"SMAStrip (Nitinol)".324, 6.03422, 6.03422, 6.03422, 6.03422, 6.03422
"SMAStrip (Nitinol)".325, 6.04058, 6.04058, 6.04058, 6.04058, 6.04058
"SMAStrip (Nitinol)".326, 6.0447, 6.0447, 6.0447, 6.0447, 6.0447
"SMAStrip (Nitinol)".327, 6.04717, 6.04717, 6.04717, 6.04717, 6.04717
"SMAStrip (Nitinol)".328, 6.04897, 6.04897, 6.04897, 6.04897, 6.04897
"SMAStrip (Nitinol)".329, 6.05084, 6.05084, 6.05084, 6.05084, 6.05084
"SMAStrip (Nitinol)".330, 6.05293, 6.05293, 6.05293, 6.05293, 6.05293
"SMAStrip (Nitinol)".331, 6.05476, 6.05476, 6.05476, 6.05476, 6.05476
"SMAStrip (Nitinol)".332, 6.05613, 6.05613, 6.05613, 6.05613, 6.05613
"SMAStrip (Nitinol)".333, 6.05711, 6.05711, 6.05711, 6.05711, 6.05711
"SMAStrip (Nitinol)".334, 6.04536, 6.04536, 6.04536, 6.04536, 6.04536
"SMAStrip (Nitinol)".335, 6.04782, 6.04782, 6.04782, 6.04782, 6.04782
"SMAStrip (Nitinol)".336, 6.06583, 6.06583, 6.06583, 6.06583, 6.06583
"SMAStrip (Nitinol)".337, 6.06513, 6.06513, 6.06513, 6.06513, 6.06513
"SMAStrip (Nitinol)".338, 6.06665, 6.06665, 6.06665, 6.06665, 6.06665
"SMAStrip (Nitinol)".339, 6.08341, 6.08341, 6.08341, 6.08341, 6.08341
"SMAStrip (Nitinol)".340, 6.08131, 6.08131, 6.08131, 6.08131, 6.08131
"SMAStrip (Nitinol)".341, 6.08193, 6.08193, 6.08193, 6.08193, 6.08193
"SMAStrip (Nitinol)".342, 6.08261, 6.08261, 6.08261, 6.08261, 6.08261
"SMAStrip (Nitinol)".343, 6.07807, 6.07807, 6.07807, 6.07807, 6.07807
"SMAStrip (Nitinol)".344, 6.07815, 6.07815, 6.07815, 6.07815, 6.07815
"SMAStrip (Nitinol)".345, 6.079, 6.079, 6.079, 6.079, 6.079
"SMAStrip (Nitinol)".346, 6.07724, 6.07724, 6.07724, 6.07724, 6.07724
"SMAStrip (Nitinol)".347, 6.07568, 6.07568, 6.07568, 6.07568, 6.07568
"SMAStrip (Nitinol)".348, 6.07383, 6.07383, 6.07383, 6.07383, 6.07383
"SMAStrip (Nitinol)".349, 6.07268, 6.07268, 6.07268, 6.07268, 6.07268
"SMAStrip (Nitinol)".350, 6.07212, 6.07212, 6.07212, 6.07212, 6.07212
"SMAStrip (Nitinol)".351, 6.07161, 6.07161, 6.07161, 6.07161, 6.07161
"SMAStrip (Nitinol)".352, 6.07087, 6.07087, 6.07087, 6.07087, 6.07087
"SMAStrip (Nitinol)".353, 6.06722, 6.06722, 6.06722, 6.06722, 6.06722
"SMAStrip (Nitinol)".354, 6.06311, 6.06311, 6.06311, 6.06311, 6.06311
"SMAStrip (Nitinol)".355, 6.06287, 6.06287, 6.06287, 6.06287, 6.06287
"SMAStrip (Nitinol)".356, 6.05832, 6.05832, 6.05832, 6.05832, 6.05832
"SMAStrip (Nitinol)".357, 6.05461, 6.05461, 6.05461, 6.05461, 6.05461
"SMAStrip (Nitinol)".358, 6.05249, 6.05249, 6.05249, 6.05249, 6.05249
"SMAStrip (Nitinol)".359, 6.05097, 6.05097, 6.05097, 6.05097, 6.05097
"SMAStrip (Nitinol)".360, 6.04736, 6.04736, 6.04736, 6.04736, 6.04736
"SMAStrip (Nitinol)".361, 6.03829, 6.03829, 6.03829, 6.03829, 6.03829
"SMAStrip (Nitinol)".362, 6.02399, 6.02399, 6.02399, 6.02399, 6.02399
"SMAStrip (Nitinol)".363, 6.01416, 6.01416, 6.01416, 6.01416, 6.01416
"SMAStrip (Nitinol)".364, 5.9935, 5.9935, 5.9935, 5.9935, 5.9935
"SMAStrip (Nitinol)".365, 5.97587, 5.97587, 5.97587, 5.97587, 5.97587
"SMAStrip (Nitinol)".366, 5.95246, 5.95246, 5.95246, 5.95246, 5.95246
"SMAStrip (Nitinol)".367, 5.92803, 5.92803, 5.92803, 5.92803, 5.92803
"SMAStrip (Nitinol)".368, 5.90793, 5.90793, 5.90793, 5.90793, 5.90793
"SMAStrip (Nitinol)".369, 5.84047, 5.84047, 5.84047, 5.84047, 5.84047
"SMAStrip (Nitinol)".370, 5.78225, 5.78225, 5.78225, 5.78225, 5.78225
"SMAStrip (Nitinol)".371, 5.71072, 5.71072, 5.71072, 5.71072, 5.71072
"SMAStrip (Nitinol)".372, 5.61827, 5.61827, 5.61827, 5.61827, 5.61827
"SMAStrip (Nitinol)".373, 5.56426, 5.56426, 5.56426, 5.56426, 5.56426
"SMAStrip (Nitinol)".374, 5.46872, 5.46872, 5.46872, 5.46872, 5.46872
"SMAStrip (Nitinol)".375, 5.39175, 5.39175, 5.39175, 5.39175, 5.39175
"SMAStrip (Nitinol)".376, 5.32736, 5.32736, 5.32736, 5.32736, 5.32736
"SMAStrip (Nitinol)".377, 5.27328, 5.27328, 5.27328, 5.27328, 5.27328
"SMAStrip (Nitinol)".378, 5.22711, 5.22711, 5.22711, 5.22711, 5.22711
"SMAStrip (Nitinol)".379, 5.19082, 5.19082, 5.19082, 5.19082, 5.19082
"SMAStrip (Nitinol)".380, 5.16476, 5.16476, 5.16476, 5.16476, 5.16476
"SMAStrip (Nitinol)".381, 5.1283, 5.1283, 5.1283, 5.1283, 5.1283
"SMAStrip (Nitinol)".382, 5.11283, 5.11283, 5.11283, 5.11283, 5.11283
"SMAStrip (Nitinol)".383, 5.10122, 5.10122, 5.10122, 5.10122, 5.10122
"SMAStrip (Nitinol)".384, 5.08547, 5.08547, 5.08547, 5.08547, 5.08547
"SMAStrip (Nitinol)".385, 5.08826, 5.08826, 5.08826, 5.08826, 5.08826
"SMAStrip (Nitinol)".386, 5.10699, 5.10699, 5.10699, 5.10699, 5.10699
"SMAStrip (Nitinol)".387, 5.12853, 5.12853, 5.12853, 5.12853, 5.12853
"SMAStrip (Nitinol)".388, 5.16081, 5.16081, 5.16081, 5.16081, 5.16081
"SMAStrip (Nitinol)".389, 5.1914, 5.1914, 5.1914, 5.1914, 5.1914
"SMAStrip (Nitinol)".390, 5.2268, 5.2268, 5.2268, 5.2268, 5.2268
"SMAStrip (Nitinol)".391, 5.29317, 5.29317, 5.29317, 5.29317, 5.29317
"SMAStrip (Nitinol)".392, 5.35578, 5.35578, 5.35578, 5.35578, 5.35578
"SMAStrip (Nitinol)".393, 5.4276, 5.4276, 5.4276, 5.4276, 5.4276
"SMAStrip (Nitinol)".394, 5.49267, 5.49267, 5.49267, 5.49267, 5.49267
"SMAStrip (Nitinol)".395, 5.56033, 5.56033, 5.56033, 5.56033, 5.56033
"SMAStrip (Nitinol)".396, 5.62421, 5.62421, 5.62421, 5.62421, 5.62421
"SMAStrip (Nitinol)".397, 5.67012, 5.67012, 5.67012, 5.67012, 5.67012
"SMAStrip (Nitinol)".398, 5.7183, 5.7183, 5.7183, 5.7183, 5.7183
"SMAStrip (Nitinol)".399, 5.78512, 5.78512, 5.78512, 5.78512, 5.78512
"SMAStrip (Nitinol)".400, 5.8263, 5.8263, 5.8263, 5.8263, 5.8263
"SMAStrip (Nitinol)".401, 5.86233, 5.86233, 5.86233, 5.86233, 5.86233
"SMAStrip (Nitinol)".402, 5.89087, 5.89087, 5.89087, 5.89087, 5.89087
"SMAStrip (Nitinol)".403, 5.9158, 5.9158, 5.9158, 5.9158, 5.9158
"SMAStrip (Nitinol)".404, 5.9469, 5.9469, 5.9469, 5.9469, 5.9469
"SMAStrip (Nitinol)".405, 5.97003, 5.97003, 5.97003, 5.97003, 5.97003
"SMAStrip (Nitinol)".406, 5.98605, 5.98605, 5.98605, 5.98605, 5.98605
"SMAStrip (Nitinol)".407, 6.01374, 6.01374, 6.01374, 6.01374, 6.01374
"SMAStrip (Nitinol)".408, 6.02943, 6.02943, 6.02943, 6.02943, 6.02943
"SMAStrip (Nitinol)".409, 6.03406, 6.03406, 6.03406, 6.03406, 6.03406
"SMAStrip (Nitinol)".410, 6.04336, 6.04336, 6.04336, 6.04336, 6.04336
"SMAStrip (Nitinol)".411, 6.05316, 6.05316, 6.05316, 6.05316, 6.05316
"SMAStrip (Nitinol)".412, 6.05505, 6.05505, 6.05505, 6.05505, 6.05505
"SMAStrip (Nitinol)".413, 6.0581, 6.0581, 6.0581, 6.0581, 6.0581
"SMAStrip (Nitinol)".414, 6.05944, 6.05944, 6.05944, 6.05944, 6.05944
"SMAStrip (Nitinol)".415, 6.06374, 6.06374, 6.06374, 6.06374, 6.06374
"SMAStrip (Nitinol)".416, 6.06464, 6.06464, 6.06464, 6.06464, 6.06464
"SMAStrip (Nitinol)".417, 6.06742, 6.06742, 6.06742, 6.06742, 6.06742
"SMAStrip (Nitinol)".418, 6.07059, 6.07059, 6.07059, 6.07059, 6.07059
"SMAStrip (Nitinol)".419, 6.07194, 6.07194, 6.07194, 6.07194, 6.07194
"SMAStrip (Nitinol)".420, 6.06983, 6.06983, 6.06983, 6.06983, 6.06983
"SMAStrip (Nitinol)".421, 6.07048, 6.07048, 6.07048, 6.07048, 6.07048
"SMAStrip (Nitinol)".422, 6.0742, 6.0742, 6.0742, 6.0742, 6.0742
"SMAStrip (Nitinol)".423, 6.07619, 6.07619, 6.07619, 6.07619, 6.07619
"SMAStrip (Nitinol)".424, 6.07601, 6.07601, 6.07601, 6.07601, 6.07601
"SMAStrip (Nitinol)".425, 6.07783, 6.07783, 6.07783, 6.07783, 6.07783
"SMAStrip (Nitinol)".426, 6.0721, 6.0721, 6.0721, 6.0721, 6.0721
"SMAStrip (Nitinol)".427, 6.07097, 6.07097, 6.07097, 6.07097, 6.07097
"SMAStrip (Nitinol)".428, 6.07822, 6.07822, 6.07822, 6.07822, 6.07822
"SMAStrip (Nitinol)".429, 6.07986, 6.07986, 6.07986, 6.07986, 6.07986
"SMAStrip (Nitinol)".430, 6.08192, 6.08192, 6.08192, 6.08192, 6.08192
"SMAStrip (Nitinol)".431, 6.08151, 6.08151, 6.08151, 6.08151, 6.08151
"SMAStrip (Nitinol)".432, 6.07759, 6.07759, 6.07759, 6.07759, 6.07759
"SMAStrip (Nitinol)".433, 6.0801, 6.0801, 6.0801, 6.0801, 6.0801
"SMAStrip (Nitinol)".434, 6.07955, 6.07955, 6.07955, 6.07955, 6.07955
"SMAStrip (Nitinol)".435, 6.07522, 6.07522, 6.07522, 6.07522, 6.07522
"SMAStrip (Nitinol)".436, 6.07546, 6.07546, 6.07546, 6.07546, 6.07546
"SMAStrip (Nitinol)".437, 6.06897, 6.06897, 6.06897, 6.06897, 6.06897
"SMAStrip (Nitinol)".438, 6.0734, 6.0734, 6.0734, 6.0734, 6.0734
"SMAStrip (Nitinol)".439, 6.07286, 6.07286, 6.07286, 6.07286, 6.07286
"SMAStrip (Nitinol)".440, 6.07083, 6.07083, 6.07083, 6.07083, 6.07083
"SMAStrip (Nitinol)".441, 6.07025, 6.07025, 6.07025, 6.07025, 6.07025
"SMAStrip (Nitinol)".442, 6.07067, 6.07067, 6.07067, 6.07067, 6.07067
"SMAStrip (Nitinol)".443, 6.06737, 6.06737, 6.06737, 6.06737, 6.06737
"SMAStrip (Nitinol)".444, 6.0663, 6.0663, 6.0663, 6.0663, 6.0663
"SMAStrip (Nitinol)".445, 6.06487, 6.06487, 6.06487, 6.06487, 6.06487
"SMAStrip (Nitinol)".446, 6.06192, 6.06192, 6.06192, 6.06192, 6.06192
"SMAStrip (Nitinol)".447, 6.0586, 6.0586, 6.0586, 6.0586, 6.0586
"SMAStrip (Nitinol)".448, 6.05676, 6.05676, 6.05676, 6.05676, 6.05676
"SMAStrip (Nitinol)".449, 6.04983, 6.04983, 6.04983, 6.04983, 6.04983
"SMAStrip (Nitinol)".450, 6.0442, 6.0442, 6.0442, 6.0442, 6.0442
"SMAStrip (Nitinol)".451, 6.03665, 6.03665, 6.03665, 6.03665, 6.03665
"SMAStrip (Nitinol)".452, 6.02548, 6.02548, 6.02548, 6.02548, 6.02548
"SMAStrip (Nitinol)".453, 6.01216, 6.01216, 6.01216, 6.01216, 6.01216
"SMAStrip (Nitinol)".454, 5.99805, 5.99805, 5.99805, 5.99805, 5.99805
"SMAStrip (Nitinol)".455, 5.95421, 5.95421, 5.95421, 5.95421, 5.95421
"SMAStrip (Nitinol)".456, 5.92686, 5.92686, 5.92686, 5.92686, 5.92686
"SMAStrip (Nitinol)".457, 5.8813, 5.8813, 5.8813, 5.8813, 5.8813
"SMAStrip (Nitinol)".458, 5.8371, 5.8371, 5.8371, 5.8371, 5.8371
"SMAStrip (Nitinol)".459, 5.80159, 5.80159, 5.80159, 5.80159, 5.80159
"SMAStrip (Nitinol)".460, 5.73786, 5.73786, 5.73786, 5.73786, 5.73786
"SMAStrip (Nitinol)".461, 5.6782, 5.6782, 5.6782, 5.6782, 5.6782
"SMAStrip (Nitinol)".462, 5.62789, 5.62789, 5.62789, 5.62789, 5.62789
"SMAStrip (Nitinol)".463, 5.58128, 5.58128, 5.58128, 5.58128, 5.58128
"SMAStrip (Nitinol)".464, 5.5227, 5.5227, 5.5227, 5.5227, 5.5227
"SMAStrip (Nitinol)".465, 5.47414, 5.47414, 5.47414, 5.47414, 5.47414
"SMAStrip (Nitinol)".466, 5.39663, 5.39663, 5.39663, 5.39663, 5.39663
"SMAStrip (Nitinol)".467, 5.32276, 5.32276, 5.32276, 5.32276, 5.32276
"SMAStrip (Nitinol)".468, 5.26433, 5.26433, 5.26433, 5.26433, 5.26433
"SMAStrip (Nitinol)".469, 5.19532, 5.19532, 5.19532, 5.19532, 5.19532
"SMAStrip (Nitinol)".470, 5.1691, 5.1691, 5.1691, 5.1691, 5.1691
"SMAStrip (Nitinol)".471, 5.13473, 5.13473, 5.13473, 5.13473, 5.13473
"SMAStrip (Nitinol)".472, 5.10477, 5.10477, 5.10477, 5.10477, 5.10477
"SMAStrip (Nitinol)".473, 5.09276, 5.09276, 5.09276, 5.09276, 5.09276
"SMAStrip (Nitinol)".474, 5.09239, 5.09239, 5.09239, 5.09239, 5.09239
"SMAStrip (Nitinol)".475, 5.10316, 5.10316, 5.10316, 5.10316, 5.10316
"SMAStrip (Nitinol)".476, 5.10752, 5.10752, 5.10752, 5.10752, 5.10752
"SMAStrip (Nitinol)".477, 5.12441, 5.12441, 5.12441, 5.12441, 5.12441
"SMAStrip (Nitinol)".478, 5.15167, 5.15167, 5.15167, 5.15167, 5.15167
"SMAStrip (Nitinol)".479, 5.19165, 5.19165, 5.19165, 5.19165, 5.19165
"SMAStrip (Nitinol)".480, 5.2358, 5.2358, 5.2358, 5.2358, 5.2358
"SMAStrip (Nitinol)".481, 5.28332, 5.28332, 5.28332, 5.28332, 5.28332
"SMAStrip (Nitinol)".482, 5.34122, 5.34122, 5.34122, 5.34122, 5.34122
"SMAStrip (Nitinol)".483, 5.41051, 5.41051, 5.41051, 5.41051, 5.41051
"SMAStrip (Nitinol)".484, 5.49658, 5.49658, 5.49658, 5.49658, 5.49658
"SMAStrip (Nitinol)".485, 5.60967, 5.60967, 5.60967, 5.60967, 5.60967
"SMAStrip (Nitinol)".486, 5.66831, 5.66831, 5.66831, 5.66831, 5.66831
"SMAStrip (Nitinol)".487, 5.75596, 5.75596, 5.75596, 5.75596, 5.75596
"SMAStrip (Nitinol)".488, 5.80676, 5.80676, 5.80676, 5.80676, 5.80676
"SMAStrip (Nitinol)".489, 5.86552, 5.86552, 5.86552, 5.86552, 5.86552
"SMAStrip (Nitinol)".490, 5.90736, 5.90736, 5.90736, 5.90736, 5.90736
"SMAStrip (Nitinol)".491, 5.93498, 5.93498, 5.93498, 5.93498, 5.93498
"SMAStrip (Nitinol)".492, 5.95921, 5.95921, 5.95921, 5.95921, 5.95921
"SMAStrip (Nitinol)".493, 5.98067, 5.98067, 5.98067, 5.98067, 5.98067
"SMAStrip (Nitinol)".494, 5.99967, 5.99967, 5.99967, 5.99967, 5.99967
"SMAStrip (Nitinol)".495, 6.01294, 6.01294, 6.01294, 6.01294, 6.01294
"SMAStrip (Nitinol)".496, 6.02404, 6.02404, 6.02404, 6.02404, 6.02404
"SMAStrip (Nitinol)".497, 6.03345, 6.03345, 6.03345, 6.03345, 6.03345
"SMAStrip (Nitinol)".498, 6.05103, 6.05103, 6.05103, 6.05103, 6.05103
"SMAStrip (Nitinol)".499, 6.05524, 6.05524, 6.05524, 6.05524, 6.05524
"SMAStrip (Nitinol)".500, 6.05693, 6.05693, 6.05693, 6.05693, 6.05693
"SMAStrip (Nitinol)".501, 6.06087, 6.06087, 6.06087, 6.06087, 6.06087
"SMAStrip (Nitinol)".502, 6.0618, 6.0618, 6.0618, 6.0618, 6.0618
"SMAStrip (Nitinol)".503, 6.06151, 6.06151, 6.06151, 6.06151, 6.06151
"SMAStrip (Nitinol)".504, 6.06666, 6.06666, 6.06666, 6.06666, 6.06666
"SMAStrip (Nitinol)".505, 6.06716, 6.06716, 6.06716, 6.06716, 6.06716
"SMAStrip (Nitinol)".506, 6.06782, 6.06782, 6.06782, 6.06782, 6.06782
"SMAStrip (Nitinol)".507, 6.07098, 6.07098, 6.07098, 6.07098, 6.07098
"SMAStrip (Nitinol)".508, 6.07337, 6.07337, 6.07337, 6.07337, 6.07337
"SMAStrip (Nitinol)".509, 6.0764, 6.0764, 6.0764, 6.0764, 6.0764
"SMAStrip (Nitinol)".510, 6.07766, 6.07766, 6.07766, 6.07766, 6.07766
"SMAStrip (Nitinol)".511, 6.07991, 6.07991, 6.07991, 6.07991, 6.07991
"SMAStrip (Nitinol)".512, 6.08101, 6.08101, 6.08101, 6.08101, 6.08101
"SMAStrip (Nitinol)".513, 6.0824, 6.0824, 6.0824, 6.0824, 6.0824
"SMAStrip (Nitinol)".514, 6.08232, 6.08232, 6.08232, 6.08232, 6.08232
"SMAStrip (Nitinol)".515, 6.08365, 6.08365, 6.08365, 6.08365, 6.08365
"SMAStrip (Nitinol)".516, 6.08435, 6.08435, 6.08435, 6.08435, 6.08435
"SMAStrip (Nitinol)".517, 6.08427, 6.08427, 6.08427, 6.08427, 6.08427
"SMAStrip (Nitinol)".518, 6.08258, 6.08258, 6.08258, 6.08258, 6.08258
"SMAStrip (Nitinol)".519, 6.08384, 6.08384, 6.08384, 6.08384, 6.08384
"SMAStrip (Nitinol)".520, 6.07474, 6.07474, 6.07474, 6.07474, 6.07474
"SMAStrip (Nitinol)".521, 6.08158, 6.08158, 6.08158, 6.08158, 6.08158
"SMAStrip (Nitinol)".522, 6.08101, 6.08101, 6.08101, 6.08101, 6.08101
"SMAStrip (Nitinol)".523, 6.08034, 6.08034, 6.08034, 6.08034, 6.08034
"SMAStrip (Nitinol)".524, 6.08046, 6.08046, 6.08046, 6.08046, 6.08046
"SMAStrip (Nitinol)".525, 6.0773, 6.0773, 6.0773, 6.0773, 6.0773
"SMAStrip (Nitinol)".526, 6.07465, 6.07465, 6.07465, 6.07465, 6.07465
"SMAStrip (Nitinol)".527, 6.07326, 6.07326, 6.07326, 6.07326, 6.07326
"SMAStrip (Nitinol)".528, 6.07166, 6.07166, 6.07166, 6.07166, 6.07166
"SMAStrip (Nitinol)".529, 6.0696, 6.0696, 6.0696, 6.0696, 6.0696
"SMAStrip (Nitinol)".530, 6.06625, 6.06625, 6.06625, 6.06625, 6.06625
"SMAStrip (Nitinol)".531, 6.06249, 6.06249, 6.06249, 6.06249, 6.06249
"SMAStrip (Nitinol)".532, 6.05805, 6.05805, 6.05805, 6.05805, 6.05805
"SMAStrip (Nitinol)".533, 6.05111, 6.05111, 6.05111, 6.05111, 6.05111
"SMAStrip (Nitinol)".534, 6.05514, 6.05514, 6.05514, 6.05514, 6.05514
"SMAStrip (Nitinol)".535, 6.05915, 6.05915, 6.05915, 6.05915, 6.05915
"SMAStrip (Nitinol)".536, 6.05671, 6.05671, 6.05671, 6.05671, 6.05671
"SMAStrip (Nitinol)".537, 6.05489, 6.05489, 6.05489, 6.05489, 6.05489
"SMAStrip (Nitinol)".538, 6.05229, 6.05229, 6.05229, 6.05229, 6.05229
"SMAStrip (Nitinol)".539, 6.04983, 6.04983, 6.04983, 6.04983, 6.04983
"SMAStrip (Nitinol)".540, 6.0429, 6.0429, 6.0429, 6.0429, 6.0429
"SMAStrip (Nitinol)".541, 6.03506, 6.03506, 6.03506, 6.03506, 6.03506
"SMAStrip (Nitinol)".542, 6.02569, 6.02569, 6.02569, 6.02569, 6.02569
"SMAStrip (Nitinol)".543, 6.01522, 6.01522, 6.01522, 6.01522, 6.01522
"SMAStrip (Nitinol)".544, 6.00318, 6.00318, 6.00318, 6.00318, 6.00318
"SMAStrip (Nitinol)".545, 5.97409, 5.97409, 5.97409, 5.97409, 5.97409
"SMAStrip (Nitinol)".546, 5.96491, 5.96491, 5.96491, 5.96491, 5.96491
"SMAStrip (Nitinol)".547, 5.93451, 5.93451, 5.93451, 5.93451, 5.93451
"SMAStrip (Nitinol)".548, 5.8668, 5.8668, 5.8668, 5.8668, 5.8668
"SMAStrip (Nitinol)".549, 5.8608, 5.8608, 5.8608, 5.8608, 5.8608
"SMAStrip (Nitinol)".550, 5.81534, 5.81534, 5.81534, 5.81534, 5.81534
"SMAStrip (Nitinol)".551, 5.71195, 5.71195, 5.71195, 5.71195, 5.71195
"SMAStrip (Nitinol)".552, 5.64145, 5.64145, 5.64145, 5.64145, 5.64145
"SMAStrip (Nitinol)".553, 5.57726, 5.57726, 5.57726, 5.57726, 5.57726
"SMAStrip (Nitinol)".554, 5.55133, 5.55133, 5.55133, 5.55133, 5.55133
"SMAStrip (Nitinol)".555, 5.46307, 5.46307, 5.46307, 5.46307, 5.46307
"SMAStrip (Nitinol)".556, 5.39802, 5.39802, 5.39802, 5.39802, 5.39802
"SMAStrip (Nitinol)".557, 5.33744, 5.33744, 5.33744, 5.33744, 5.33744
"SMAStrip (Nitinol)".558, 5.28088, 5.28088, 5.28088, 5.28088, 5.28088
"SMAStrip (Nitinol)".559, 5.23238, 5.23238, 5.23238, 5.23238, 5.23238
"SMAStrip (Nitinol)".560, 5.18601, 5.18601, 5.18601, 5.18601, 5.18601
"SMAStrip (Nitinol)".561, 5.14898, 5.14898, 5.14898, 5.14898, 5.14898
"SMAStrip (Nitinol)".562, 5.12083, 5.12083, 5.12083, 5.12083, 5.12083
"SMAStrip (Nitinol)".563, 5.10024, 5.10024, 5.10024, 5.10024, 5.10024
"SMAStrip (Nitinol)".564, 5.09072, 5.09072, 5.09072, 5.09072, 5.09072
"SMAStrip (Nitinol)".565, 5.07954, 5.07954, 5.07954, 5.07954, 5.07954
"SMAStrip (Nitinol)".566, 5.08727, 5.08727, 5.08727, 5.08727, 5.08727
"SMAStrip (Nitinol)".567, 5.09702, 5.09702, 5.09702, 5.09702, 5.09702
"SMAStrip (Nitinol)".568, 5.11619, 5.11619, 5.11619, 5.11619, 5.11619
"SMAStrip (Nitinol)".569, 5.18495, 5.18495, 5.18495, 5.18495, 5.18495
"SMAStrip (Nitinol)".570, 5.22835, 5.22835, 5.22835, 5.22835, 5.22835
"SMAStrip (Nitinol)".571, 5.27924, 5.27924, 5.27924, 5.27924, 5.27924
"SMAStrip (Nitinol)".572, 5.3509, 5.3509, 5.3509, 5.3509, 5.3509
"SMAStrip (Nitinol)".573, 5.43963, 5.43963, 5.43963, 5.43963, 5.43963
"SMAStrip (Nitinol)".574, 5.50388, 5.50388, 5.50388, 5.50388, 5.50388
"SMAStrip (Nitinol)".575, 5.61032, 5.61032, 5.61032, 5.61032, 5.61032
"SMAStrip (Nitinol)".576, 5.65961, 5.65961, 5.65961, 5.65961, 5.65961
"SMAStrip (Nitinol)".577, 5.70307, 5.70307, 5.70307, 5.70307, 5.70307
"SMAStrip (Nitinol)".578, 5.77582, 5.77582, 5.77582, 5.77582, 5.77582
"SMAStrip (Nitinol)".579, 5.82211, 5.82211, 5.82211, 5.82211, 5.82211
"SMAStrip (Nitinol)".580, 5.86025, 5.86025, 5.86025, 5.86025, 5.86025
"SMAStrip (Nitinol)".581, 5.89055, 5.89055, 5.89055, 5.89055, 5.89055
"SMAStrip (Nitinol)".582, 5.92169, 5.92169, 5.92169, 5.92169, 5.92169
"SMAStrip (Nitinol)".583, 5.94801, 5.94801, 5.94801, 5.94801, 5.94801
"SMAStrip (Nitinol)".584, 5.97267, 5.97267, 5.97267, 5.97267, 5.97267
"SMAStrip (Nitinol)".585, 5.995, 5.995, 5.995, 5.995, 5.995
"SMAStrip (Nitinol)".586, 6.01664, 6.01664, 6.01664, 6.01664, 6.01664
"SMAStrip (Nitinol)".587, 6.02902, 6.02902, 6.02902, 6.02902, 6.02902
"SMAStrip (Nitinol)".588, 6.03595, 6.03595, 6.03595, 6.03595, 6.03595
"SMAStrip (Nitinol)".589, 6.03917, 6.03917, 6.03917, 6.03917, 6.03917
"SMAStrip (Nitinol)".590, 6.04736, 6.04736, 6.04736, 6.04736, 6.04736
"SMAStrip (Nitinol)".591, 6.0527, 6.0527, 6.0527, 6.0527, 6.0527
"SMAStrip (Nitinol)".592, 6.05869, 6.05869, 6.05869, 6.05869, 6.05869
"SMAStrip (Nitinol)".593, 6.05952, 6.05952, 6.05952, 6.05952, 6.05952
"SMAStrip (Nitinol)".594, 6.06037, 6.06037, 6.06037, 6.06037, 6.06037
"SMAStrip (Nitinol)".595, 6.0653, 6.0653, 6.0653, 6.0653, 6.0653
"SMAStrip (Nitinol)".596, 6.06508, 6.06508, 6.06508, 6.06508, 6.06508
"SMAStrip (Nitinol)".597, 6.06376, 6.06376, 6.06376, 6.06376, 6.06376
"SMAStrip (Nitinol)".598, 6.06803, 6.06803, 6.06803, 6.06803, 6.06803
"SMAStrip (Nitinol)".599, 6.06264, 6.06264, 6.06264, 6.06264, 6.06264
"SMAStrip (Nitinol)".600, 6.07055, 6.07055, 6.07055, 6.07055, 6.07055
"SMAStrip (Nitinol)".601, 6.072, 6.072, 6.072, 6.072, 6.072
"SMAStrip (Nitinol)".602, 6.07576, 6.07576, 6.07576, 6.07576, 6.07576
"SMAStrip (Nitinol)".603, 6.07707, 6.07707, 6.07707, 6.07707, 6.07707
"SMAStrip (Nitinol)".604, 6.07895, 6.07895, 6.07895, 6.07895, 6.07895
"SMAStrip (Nitinol)".605, 6.07771, 6.07771, 6.07771, 6.07771, 6.07771
"SMAStrip (Nitinol)".606, 6.0781, 6.0781, 6.0781, 6.0781, 6.0781
"SMAStrip (Nitinol)".607, 6.07758, 6.07758, 6.07758, 6.07758, 6.07758
"SMAStrip (Nitinol)".608, 6.07556, 6.07556, 6.07556, 6.07556, 6.07556
"SMAStrip (Nitinol)".609, 6.06079, 6.06079, 6.06079, 6.06079, 6.06079
"SMAStrip (Nitinol)".610, 6.06212, 6.06212, 6.06212, 6.06212, 6.06212
"SMAStrip (Nitinol)".611, 6.06307, 6.06307, 6.06307, 6.06307, 6.06307
"SMAStrip (Nitinol)".612, 6.06648, 6.06648, 6.06648, 6.06648, 6.06648
"SMAStrip (Nitinol)".613, 6.06693, 6.06693, 6.06693, 6.06693, 6.06693
"SMAStrip (Nitinol)".614, 6.06333, 6.06333, 6.06333, 6.06333, 6.06333
"SMAStrip (Nitinol)".615, 6.06133, 6.06133, 6.06133, 6.06133, 6.06133
"SMAStrip (Nitinol)".616, 6.05928, 6.05928, 6.05928, 6.05928, 6.05928
"SMAStrip (Nitinol)".617, 6.05654, 6.05654, 6.05654, 6.05654, 6.05654
"SMAStrip (Nitinol)".618, 6.05143, 6.05143, 6.05143, 6.05143, 6.05143
"SMAStrip (Nitinol)".619, 6.04712, 6.04712, 6.04712, 6.04712, 6.04712
"SMAStrip (Nitinol)".620, 6.04188, 6.04188, 6.04188, 6.04188, 6.04188
"SMAStrip (Nitinol)".621, 6.03819, 6.03819, 6.03819, 6.03819, 6.03819
"SMAStrip (Nitinol)".622, 6.03835, 6.03835, 6.03835, 6.03835, 6.03835
"SMAStrip (Nitinol)".623, 6.03956, 6.03956, 6.03956, 6.03956, 6.03956
"SMAStrip (Nitinol)".624, 6.04404, 6.04404, 6.04404, 6.04404, 6.04404
"SMAStrip (Nitinol)".625, 6.03842, 6.03842, 6.03842, 6.03842, 6.03842
"SMAStrip (Nitinol)".626, 6.03502, 6.03502, 6.03502, 6.03502, 6.03502
"SMAStrip (Nitinol)".627, 6.02831, 6.02831, 6.02831, 6.02831, 6.02831
"SMAStrip (Nitinol)".628, 6.01952, 6.01952, 6.01952, 6.01952, 6.01952
"SMAStrip (Nitinol)".629, 6.00958, 6.00958, 6.00958, 6.00958, 6.00958
"SMAStrip (Nitinol)".630, 5.99817, 5.99817, 5.99817, 5.99817, 5.99817
"SMAStrip (Nitinol)".631, 5.98516, 5.98516, 5.98516, 5.98516, 5.98516
"SMAStrip (Nitinol)".632, 5.97083, 5.97083, 5.97083, 5.97083, 5.97083
"SMAStrip (Nitinol)".633, 5.95365, 5.95365, 5.95365, 5.95365, 5.95365
"SMAStrip (Nitinol)".634, 5.93346, 5.93346, 5.93346, 5.93346, 5.93346
"SMAStrip (Nitinol)".635, 5.89603, 5.89603, 5.89603, 5.89603, 5.89603
"SMAStrip (Nitinol)".636, 5.83924, 5.83924, 5.83924, 5.83924, 5.83924
"SMAStrip (Nitinol)".637, 5.82032, 5.82032, 5.82032, 5.82032, 5.82032
"SMAStrip (Nitinol)".638, 5.76412, 5.76412, 5.76412, 5.76412, 5.76412
"SMAStrip (Nitinol)".639, 5.70568, 5.70568, 5.70568, 5.70568, 5.70568
"SMAStrip (Nitinol)".640, 5.64169, 5.64169, 5.64169, 5.64169, 5.64169
"SMAStrip (Nitinol)".641, 5.52048, 5.52048, 5.52048, 5.52048, 5.52048
"SMAStrip (Nitinol)".642, 5.46745, 5.46745, 5.46745, 5.46745, 5.46745
"SMAStrip (Nitinol)".643, 5.42214, 5.42214, 5.42214, 5.42214, 5.42214
"SMAStrip (Nitinol)".644, 5.37146, 5.37146, 5.37146, 5.37146, 5.37146
"SMAStrip (Nitinol)".645, 5.31632, 5.31632, 5.31632, 5.31632, 5.31632
"SMAStrip (Nitinol)".646, 5.26143, 5.26143, 5.26143, 5.26143, 5.26143
"SMAStrip (Nitinol)".647, 5.21144, 5.21144, 5.21144, 5.21144, 5.21144
"SMAStrip (Nitinol)".648, 5.16657, 5.16657, 5.16657, 5.16657, 5.16657
"SMAStrip (Nitinol)".649, 5.13063, 5.13063, 5.13063, 5.13063, 5.13063
"SMAStrip (Nitinol)".650, 5.10119, 5.10119, 5.10119, 5.10119, 5.10119
"SMAStrip (Nitinol)".651, 5.07964, 5.07964, 5.07964, 5.07964, 5.07964
"SMAStrip (Nitinol)".652, 5.0671, 5.0671, 5.0671, 5.0671, 5.0671
"SMAStrip (Nitinol)".653, 5.0617, 5.0617, 5.0617, 5.0617, 5.0617
"SMAStrip (Nitinol)".654, 5.06771, 5.06771, 5.06771, 5.06771, 5.06771
"SMAStrip (Nitinol)".655, 5.08671, 5.08671, 5.08671, 5.08671, 5.08671
"SMAStrip (Nitinol)".656, 5.09005, 5.09005, 5.09005, 5.09005, 5.09005
"SMAStrip (Nitinol)".657, 5.12214, 5.12214, 5.12214, 5.12214, 5.12214
"SMAStrip (Nitinol)".658, 5.18517, 5.18517, 5.18517, 5.18517, 5.18517
"SMAStrip (Nitinol)".659, 5.23371, 5.23371, 5.23371, 5.23371, 5.23371
"SMAStrip (Nitinol)".660, 5.33265, 5.33265, 5.33265, 5.33265, 5.33265
"SMAStrip (Nitinol)".661, 5.37725, 5.37725, 5.37725, 5.37725, 5.37725
"SMAStrip (Nitinol)".662, 5.43143, 5.43143, 5.43143, 5.43143, 5.43143
"SMAStrip (Nitinol)".663, 5.4647, 5.4647, 5.4647, 5.4647, 5.4647
"SMAStrip (Nitinol)".664, 5.53551, 5.53551, 5.53551, 5.53551, 5.53551
"SMAStrip (Nitinol)".665, 5.62697, 5.62697, 5.62697, 5.62697, 5.62697
"SMAStrip (Nitinol)".666, 5.66833, 5.66833, 5.66833, 5.66833, 5.66833
"SMAStrip (Nitinol)".667, 5.75397, 5.75397, 5.75397, 5.75397, 5.75397
"SMAStrip (Nitinol)".668, 5.79685, 5.79685, 5.79685, 5.79685, 5.79685
"SMAStrip (Nitinol)".669, 5.83465, 5.83465, 5.83465, 5.83465, 5.83465
"SMAStrip (Nitinol)".670, 5.86979, 5.86979, 5.86979, 5.86979, 5.86979
"SMAStrip (Nitinol)".671, 5.90247, 5.90247, 5.90247, 5.90247, 5.90247
"SMAStrip (Nitinol)".672, 5.93238, 5.93238, 5.93238, 5.93238, 5.93238
"SMAStrip (Nitinol)".673, 5.95808, 5.95808, 5.95808, 5.95808, 5.95808
"SMAStrip (Nitinol)".674, 5.98037, 5.98037, 5.98037, 5.98037, 5.98037
"SMAStrip (Nitinol)".675, 5.99784, 5.99784, 5.99784, 5.99784, 5.99784
"SMAStrip (Nitinol)".676, 6.01061, 6.01061, 6.01061, 6.01061, 6.01061
"SMAStrip (Nitinol)".677, 6.01732, 6.01732, 6.01732, 6.01732, 6.01732
"SMAStrip (Nitinol)".678, 6.02103, 6.02103, 6.02103, 6.02103, 6.02103
"SMAStrip (Nitinol)".679, 6.01415, 6.01415, 6.01415, 6.01415, 6.01415
"SMAStrip (Nitinol)".680, 6.03127, 6.03127, 6.03127, 6.03127, 6.03127
"SMAStrip (Nitinol)".681, 6.03726, 6.03726, 6.03726, 6.03726, 6.03726
"SMAStrip (Nitinol)".682, 6.04594, 6.04594, 6.04594, 6.04594, 6.04594
"SMAStrip (Nitinol)".683, 6.04386, 6.04386, 6.04386, 6.04386, 6.04386
"SMAStrip (Nitinol)".684, 6.04595, 6.04595, 6.04595, 6.04595, 6.04595
"SMAStrip (Nitinol)".685, 6.05571, 6.05571, 6.05571, 6.05571, 6.05571
"SMAStrip (Nitinol)".686, 6.05189, 6.05189, 6.05189, 6.05189, 6.05189
"SMAStrip (Nitinol)".687, 6.04944, 6.04944, 6.04944, 6.04944, 6.04944
"SMAStrip (Nitinol)".688, 6.04922, 6.04922, 6.04922, 6.04922, 6.04922
"SMAStrip (Nitinol)".689, 6.05046, 6.05046, 6.05046, 6.05046, 6.05046
"SMAStrip (Nitinol)".690, 6.05031, 6.05031, 6.05031, 6.05031, 6.05031
"SMAStrip (Nitinol)".691, 6.05536, 6.05536, 6.05536, 6.05536, 6.05536
"SMAStrip (Nitinol)".692, 6.05888, 6.05888, 6.05888, 6.05888, 6.05888
"SMAStrip (Nitinol)".693, 6.06236, 6.06236, 6.06236, 6.06236, 6.06236
"SMAStrip (Nitinol)".694, 6.06523, 6.06523, 6.06523, 6.06523, 6.06523
"SMAStrip (Nitinol)".695, 6.06997, 6.06997, 6.06997, 6.06997, 6.06997
"SMAStrip (Nitinol)".696, 6.07011, 6.07011, 6.07011, 6.07011, 6.07011
"SMAStrip (Nitinol)".697, 6.06774, 6.06774, 6.06774, 6.06774, 6.06774
"SMAStrip (Nitinol)".698, 6.06262, 6.06262, 6.06262, 6.06262, 6.06262
"SMAStrip (Nitinol)".699, 6.06121, 6.06121, 6.06121, 6.06121, 6.06121
"SMAStrip (Nitinol)".700, 6.04989, 6.04989, 6.04989, 6.04989, 6.04989
"SMAStrip (Nitinol)".701, 6.0477, 6.0477, 6.0477, 6.0477, 6.0477
"SMAStrip (Nitinol)".702, 6.04854, 6.04854, 6.04854, 6.04854, 6.04854
"SMAStrip (Nitinol)".703, 6.04895, 6.04895, 6.04895, 6.04895, 6.04895
"SMAStrip (Nitinol)".704, 6.04989, 6.04989, 6.04989, 6.04989, 6.04989
"SMAStrip (Nitinol)".705, 6.04954, 6.04954, 6.04954, 6.04954, 6.04954
"SMAStrip (Nitinol)".706, 6.04721, 6.04721, 6.04721, 6.04721, 6.04721
"SMAStrip (Nitinol)".707, 6.04469, 6.04469, 6.04469, 6.04469, 6.04469
"SMAStrip (Nitinol)".708, 6.03954, 6.03954, 6.03954, 6.03954, 6.03954
"SMAStrip (Nitinol)".709, 6.03665, 6.03665, 6.03665, 6.03665, 6.03665
"SMAStrip (Nitinol)".710, 6.0332, 6.0332, 6.0332, 6.0332, 6.0332
"SMAStrip (Nitinol)".711, 6.02865, 6.02865, 6.02865, 6.02865, 6.02865
"SMAStrip (Nitinol)".712, 6.0244, 6.0244, 6.0244, 6.0244, 6.0244
"SMAStrip (Nitinol)".713, 6.02047, 6.02047, 6.02047, 6.02047, 6.02047
"SMAStrip (Nitinol)".714, 6.01772, 6.01772, 6.01772, 6.01772, 6.01772
"SMAStrip (Nitinol)".715, 6.01466, 6.01466, 6.01466, 6.01466, 6.01466
"SMAStrip (Nitinol)".716, 6.00953, 6.00953, 6.00953, 6.00953, 6.00953
"SMAStrip (Nitinol)".717, 6.02231, 6.02231, 6.02231, 6.02231, 6.02231
"SMAStrip (Nitinol)".718, 6.0181, 6.0181, 6.0181, 6.0181, 6.0181
"SMAStrip (Nitinol)".719, 6.013, 6.013, 6.013, 6.013, 6.013
"SMAStrip (Nitinol)".720, 6.00618, 6.00618, 6.00618, 6.00618, 6.00618
"SMAStrip (Nitinol)".721, 5.99741, 5.99741, 5.99741, 5.99741, 5.99741
"SMAStrip (Nitinol)".722, 5.98778, 5.98778, 5.98778, 5.98778, 5.98778
"SMAStrip (Nitinol)".723, 5.97592, 5.97592, 5.97592, 5.97592, 5.97592
"SMAStrip (Nitinol)".724, 5.96229, 5.96229, 5.96229, 5.96229, 5.96229
"SMAStrip (Nitinol)".725, 5.94611, 5.94611, 5.94611, 5.94611, 5.94611
"SMAStrip (Nitinol)".726, 5.92635, 5.92635, 5.92635, 5.92635, 5.92635
"SMAStrip (Nitinol)".727, 5.90099, 5.90099, 5.90099, 5.90099, 5.90099
"SMAStrip (Nitinol)".728, 5.8639, 5.8639, 5.8639, 5.8639, 5.8639
"SMAStrip (Nitinol)".729, 5.82226, 5.82226, 5.82226, 5.82226, 5.82226
"SMAStrip (Nitinol)".730, 5.79864, 5.79864, 5.79864, 5.79864, 5.79864
"SMAStrip (Nitinol)".731, 5.76104, 5.76104, 5.76104, 5.76104, 5.76104
"SMAStrip (Nitinol)".732, 5.69198, 5.69198, 5.69198, 5.69198, 5.69198
"SMAStrip (Nitinol)".733, 5.62642, 5.62642, 5.62642, 5.62642, 5.62642
"SMAStrip (Nitinol)".734, 5.56016, 5.56016, 5.56016, 5.56016, 5.56016
"SMAStrip (Nitinol)".735, 5.45105, 5.45105, 5.45105, 5.45105, 5.45105
"SMAStrip (Nitinol)".736, 5.39551, 5.39551, 5.39551, 5.39551, 5.39551
"SMAStrip (Nitinol)".737, 5.34004, 5.34004, 5.34004, 5.34004, 5.34004
"SMAStrip (Nitinol)".738, 5.28479, 5.28479, 5.28479, 5.28479, 5.28479
"SMAStrip (Nitinol)".739, 5.23029, 5.23029, 5.23029, 5.23029, 5.23029
"SMAStrip (Nitinol)".740, 5.18016, 5.18016, 5.18016, 5.18016, 5.18016
"SMAStrip (Nitinol)".741, 5.13783, 5.13783, 5.13783, 5.13783, 5.13783
"SMAStrip (Nitinol)".742, 5.1016, 5.1016, 5.1016, 5.1016, 5.1016
"SMAStrip (Nitinol)".743, 5.072, 5.072, 5.072, 5.072, 5.072
"SMAStrip (Nitinol)".744, 5.05001, 5.05001, 5.05001, 5.05001, 5.05001
"SMAStrip (Nitinol)".745, 5.03503, 5.03503, 5.03503, 5.03503, 5.03503
"SMAStrip (Nitinol)".746, 5.02942, 5.02942, 5.02942, 5.02942, 5.02942
"SMAStrip (Nitinol)".747, 5.04642, 5.04642, 5.04642, 5.04642, 5.04642
"SMAStrip (Nitinol)".748, 5.06091, 5.06091, 5.06091, 5.06091, 5.06091
"SMAStrip (Nitinol)".749, 5.08946, 5.08946, 5.08946, 5.08946, 5.08946
"SMAStrip (Nitinol)".750, 5.09312, 5.09312, 5.09312, 5.09312, 5.09312
"SMAStrip (Nitinol)".751, 5.17039, 5.17039, 5.17039, 5.17039, 5.17039
"SMAStrip (Nitinol)".752, 5.21775, 5.21775, 5.21775, 5.21775, 5.21775
"SMAStrip (Nitinol)".753, 5.26944, 5.26944, 5.26944, 5.26944, 5.26944
"SMAStrip (Nitinol)".754, 5.31986, 5.31986, 5.31986, 5.31986, 5.31986
"SMAStrip (Nitinol)".755, 5.37591, 5.37591, 5.37591, 5.37591, 5.37591
"SMAStrip (Nitinol)".756, 5.4158, 5.4158, 5.4158, 5.4158, 5.4158
"SMAStrip (Nitinol)".757, 5.46364, 5.46364, 5.46364, 5.46364, 5.46364
"SMAStrip (Nitinol)".758, 5.58499, 5.58499, 5.58499, 5.58499, 5.58499
"SMAStrip (Nitinol)".759, 5.67561, 5.67561, 5.67561, 5.67561, 5.67561
"SMAStrip (Nitinol)".760, 5.72183, 5.72183, 5.72183, 5.72183, 5.72183
"SMAStrip (Nitinol)".761, 5.76345, 5.76345, 5.76345, 5.76345, 5.76345
"SMAStrip (Nitinol)".762, 5.80532, 5.80532, 5.80532, 5.80532, 5.80532
"SMAStrip (Nitinol)".763, 5.84266, 5.84266, 5.84266, 5.84266, 5.84266
"SMAStrip (Nitinol)".764, 5.87739, 5.87739, 5.87739, 5.87739, 5.87739
"SMAStrip (Nitinol)".765, 5.90697, 5.90697, 5.90697, 5.90697, 5.90697
"SMAStrip (Nitinol)".766, 5.93282, 5.93282, 5.93282, 5.93282, 5.93282
"SMAStrip (Nitinol)".767, 5.95497, 5.95497, 5.95497, 5.95497, 5.95497
"SMAStrip (Nitinol)".768, 5.97207, 5.97207, 5.97207, 5.97207, 5.97207
"SMAStrip (Nitinol)".769, 5.9839, 5.9839, 5.9839, 5.9839, 5.9839
"SMAStrip (Nitinol)".770, 5.99136, 5.99136, 5.99136, 5.99136, 5.99136
"SMAStrip (Nitinol)".771, 5.99535, 5.99535, 5.99535, 5.99535, 5.99535
"SMAStrip (Nitinol)".772, 6.00472, 6.00472, 6.00472, 6.00472, 6.00472
"SMAStrip (Nitinol)".773, 6.01286, 6.01286, 6.01286, 6.01286, 6.01286
"SMAStrip (Nitinol)".774, 6.0219, 6.0219, 6.0219, 6.0219, 6.0219
"SMAStrip (Nitinol)".775, 6.03245, 6.03245, 6.03245, 6.03245, 6.03245
"SMAStrip (Nitinol)".776, 6.02751, 6.02751, 6.02751, 6.02751, 6.02751
"SMAStrip (Nitinol)".777, 6.03547, 6.03547, 6.03547, 6.03547, 6.03547
"SMAStrip (Nitinol)".778, 6.03052, 6.03052, 6.03052, 6.03052, 6.03052
"SMAStrip (Nitinol)".779, 6.02872, 6.02872, 6.02872, 6.02872, 6.02872
"SMAStrip (Nitinol)".780, 6.02871, 6.02871, 6.02871, 6.02871, 6.02871
"SMAStrip (Nitinol)".781, 6.02965, 6.02965, 6.02965, 6.02965, 6.02965
"SMAStrip (Nitinol)".782, 6.03093, 6.03093, 6.03093, 6.03093, 6.03093
"SMAStrip (Nitinol)".783, 6.03329, 6.03329, 6.03329, 6.03329, 6.03329
"SMAStrip (Nitinol)".784, 6.03654, 6.03654, 6.03654, 6.03654, 6.03654
"SMAStrip (Nitinol)".785, 6.04041, 6.04041, 6.04041, 6.04041, 6.04041
"SMAStrip (Nitinol)".786, 6.04372, 6.04372, 6.04372, 6.04372, 6.04372
"SMAStrip (Nitinol)".787, 6.04678, 6.04678, 6.04678, 6.04678, 6.04678
"SMAStrip (Nitinol)".788, 6.04896, 6.04896, 6.04896, 6.04896, 6.04896
"SMAStrip (Nitinol)".789, 6.05176, 6.05176, 6.05176, 6.05176, 6.05176
"SMAStrip (Nitinol)".790, 6.05457, 6.05457, 6.05457, 6.05457, 6.05457
"SMAStrip (Nitinol)".791, 6.05009, 6.05009, 6.05009, 6.05009, 6.05009
"SMAStrip (Nitinol)".792, 6.04883, 6.04883, 6.04883, 6.04883, 6.04883
"SMAStrip (Nitinol)".793, 6.04466, 6.04466, 6.04466, 6.04466, 6.04466
"SMAStrip (Nitinol)".794, 6.03924, 6.03924, 6.03924, 6.03924, 6.03924
"SMAStrip (Nitinol)".795, 6.03782, 6.03782, 6.03782, 6.03782, 6.03782
"SMAStrip (Nitinol)".796, 6.03682, 6.03682, 6.03682, 6.03682, 6.03682
"SMAStrip (Nitinol)".797, 6.03551, 6.03551, 6.03551, 6.03551, 6.03551
"SMAStrip (Nitinol)".798, 6.03414, 6.03414, 6.03414, 6.03414, 6.03414
"SMAStrip (Nitinol)".799, 6.03376, 6.03376, 6.03376, 6.03376, 6.03376
"SMAStrip (Nitinol)".800, 6.03157, 6.03157, 6.03157, 6.03157, 6.03157
"SMAStrip (Nitinol)".801, 6.0287, 6.0287, 6.0287, 6.0287, 6.0287
"SMAStrip (Nitinol)".802, 6.02614, 6.02614, 6.02614, 6.02614, 6.02614
"SMAStrip (Nitinol)".803, 6.02063, 6.02063, 6.02063, 6.02063, 6.02063
"SMAStrip (Nitinol)".804, 6.01622, 6.01622, 6.01622, 6.01622, 6.01622
"SMAStrip (Nitinol)".805, 6.01225, 6.01225, 6.01225, 6.01225, 6.01225
"SMAStrip (Nitinol)".806, 6.00897, 6.00897, 6.00897, 6.00897, 6.00897
"SMAStrip (Nitinol)".807, 6.00514, 6.00514, 6.00514, 6.00514, 6.00514
"SMAStrip (Nitinol)".808, 6.00105, 6.00105, 6.00105, 6.00105, 6.00105
"SMAStrip (Nitinol)".809, 5.99546, 5.99546, 5.99546, 5.99546, 5.99546
"SMAStrip (Nitinol)".810, 5.99213, 5.99213, 5.99213, 5.99213, 5.99213
"SMAStrip (Nitinol)".811, 6.00473, 6.00473, 6.00473, 6.00473, 6.00473
"SMAStrip (Nitinol)".812, 6.0002, 6.0002, 6.0002, 6.0002, 6.0002
"SMAStrip (Nitinol)".813, 5.99481, 5.99481, 5.99481, 5.99481, 5.99481
"SMAStrip (Nitinol)".814, 5.98885, 5.98885, 5.98885, 5.98885, 5.98885
"SMAStrip (Nitinol)".815, 5.98195, 5.98195, 5.98195, 5.98195, 5.98195
"SMAStrip (Nitinol)".816, 5.97402, 5.97402, 5.97402, 5.97402, 5.97402
"SMAStrip (Nitinol)".817, 5.96338, 5.96338, 5.96338, 5.96338, 5.96338
"SMAStrip (Nitinol)".818, 5.95164, 5.95164, 5.95164, 5.95164, 5.95164
"SMAStrip (Nitinol)".819, 5.93729, 5.93729, 5.93729, 5.93729, 5.93729
"SMAStrip (Nitinol)".820, 5.899, 5.899, 5.899, 5.899, 5.899
"SMAStrip (Nitinol)".821, 5.87355, 5.87355, 5.87355, 5.87355, 5.87355
"SMAStrip (Nitinol)".822, 5.84079, 5.84079, 5.84079, 5.84079, 5.84079
"SMAStrip (Nitinol)".823, 5.80311, 5.80311, 5.80311, 5.80311, 5.80311
"SMAStrip (Nitinol)".824, 5.76427, 5.76427, 5.76427, 5.76427, 5.76427
"SMAStrip (Nitinol)".825, 5.72006, 5.72006, 5.72006, 5.72006, 5.72006
"SMAStrip (Nitinol)".826, 5.66437, 5.66437, 5.66437, 5.66437, 5.66437
"SMAStrip (Nitinol)".827, 5.6031, 5.6031, 5.6031, 5.6031, 5.6031
"SMAStrip (Nitinol)".828, 5.53793, 5.53793, 5.53793, 5.53793, 5.53793
"SMAStrip (Nitinol)".829, 5.47181, 5.47181, 5.47181, 5.47181, 5.47181
"SMAStrip (Nitinol)".830, 5.42889, 5.42889, 5.42889, 5.42889, 5.42889
"SMAStrip (Nitinol)".831, 5.30726, 5.30726, 5.30726, 5.30726, 5.30726
"SMAStrip (Nitinol)".832, 5.24973, 5.24973, 5.24973, 5.24973, 5.24973
"SMAStrip (Nitinol)".833, 5.19516, 5.19516, 5.19516, 5.19516, 5.19516
"SMAStrip (Nitinol)".834, 5.14516, 5.14516, 5.14516, 5.14516, 5.14516
"SMAStrip (Nitinol)".835, 5.10182, 5.10182, 5.10182, 5.10182, 5.10182
"SMAStrip (Nitinol)".836, 5.06522, 5.06522, 5.06522, 5.06522, 5.06522
"SMAStrip (Nitinol)".837, 5.03578, 5.03578, 5.03578, 5.03578, 5.03578
"SMAStrip (Nitinol)".838, 5.01269, 5.01269, 5.01269, 5.01269, 5.01269
"SMAStrip (Nitinol)".839, 4.99774, 4.99774, 4.99774, 4.99774, 4.99774
"SMAStrip (Nitinol)".840, 4.99127, 4.99127, 4.99127, 4.99127, 4.99127
"SMAStrip (Nitinol)".841, 4.99343, 4.99343, 4.99343, 4.99343, 4.99343
"SMAStrip (Nitinol)".842, 5.00463, 5.00463, 5.00463, 5.00463, 5.00463
"SMAStrip (Nitinol)".843, 5.04082, 5.04082, 5.04082, 5.04082, 5.04082
"SMAStrip (Nitinol)".844, 5.06465, 5.06465, 5.06465, 5.06465, 5.06465
"SMAStrip (Nitinol)".845, 5.14473, 5.14473, 5.14473, 5.14473, 5.14473
"SMAStrip (Nitinol)".846, 5.19324, 5.19324, 5.19324, 5.19324, 5.19324
"SMAStrip (Nitinol)".847, 5.2461, 5.2461, 5.2461, 5.2461, 5.2461
"SMAStrip (Nitinol)".848, 5.30285, 5.30285, 5.30285, 5.30285, 5.30285
"SMAStrip (Nitinol)".849, 5.36129, 5.36129, 5.36129, 5.36129, 5.36129
"SMAStrip (Nitinol)".850, 5.40766, 5.40766, 5.40766, 5.40766, 5.40766
"SMAStrip (Nitinol)".851, 5.49135, 5.49135, 5.49135, 5.49135, 5.49135
"SMAStrip (Nitinol)".852, 5.53417, 5.53417, 5.53417, 5.53417, 5.53417
"SMAStrip (Nitinol)".853, 5.58516, 5.58516, 5.58516, 5.58516, 5.58516
"SMAStrip (Nitinol)".854, 5.63776, 5.63776, 5.63776, 5.63776, 5.63776
"SMAStrip (Nitinol)".855, 5.68572, 5.68572, 5.68572, 5.68572, 5.68572
"SMAStrip (Nitinol)".856, 5.73102, 5.73102, 5.73102, 5.73102, 5.73102
"SMAStrip (Nitinol)".857, 5.77704, 5.77704, 5.77704, 5.77704, 5.77704
"SMAStrip (Nitinol)".858, 5.81669, 5.81669, 5.81669, 5.81669, 5.81669
"SMAStrip (Nitinol)".859, 5.84955, 5.84955, 5.84955, 5.84955, 5.84955
"SMAStrip (Nitinol)".860, 5.88009, 5.88009, 5.88009, 5.88009, 5.88009
"SMAStrip (Nitinol)".861, 5.90603, 5.90603, 5.90603, 5.90603, 5.90603
"SMAStrip (Nitinol)".862, 5.9269, 5.9269, 5.9269, 5.9269, 5.9269
"SMAStrip (Nitinol)".863, 5.94334, 5.94334, 5.94334, 5.94334, 5.94334
"SMAStrip (Nitinol)".864, 5.95584, 5.95584, 5.95584, 5.95584, 5.95584
"SMAStrip (Nitinol)".865, 5.96508, 5.96508, 5.96508, 5.96508, 5.96508
"SMAStrip (Nitinol)".866, 5.97794, 5.97794, 5.97794, 5.97794, 5.97794
"SMAStrip (Nitinol)".867, 5.9862, 5.9862, 5.9862, 5.9862, 5.9862
"SMAStrip (Nitinol)".868, 5.99326, 5.99326, 5.99326, 5.99326, 5.99326
"SMAStrip (Nitinol)".869, 6.00275, 6.00275, 6.00275, 6.00275, 6.00275
"SMAStrip (Nitinol)".870, 6.01396, 6.01396, 6.01396, 6.01396, 6.01396
"SMAStrip (Nitinol)".871, 6.00549, 6.00549, 6.00549, 6.00549, 6.00549
"SMAStrip (Nitinol)".872, 6.00531, 6.00531, 6.00531, 6.00531, 6.00531
"SMAStrip (Nitinol)".873, 6.00653, 6.00653, 6.00653, 6.00653, 6.00653
"SMAStrip (Nitinol)".874, 6.00854, 6.00854, 6.00854, 6.00854, 6.00854
"SMAStrip (Nitinol)".875, 6.01097, 6.01097, 6.01097, 6.01097, 6.01097
"SMAStrip (Nitinol)".876, 6.01498, 6.01498, 6.01498, 6.01498, 6.01498
"SMAStrip (Nitinol)".877, 6.01806, 6.01806, 6.01806, 6.01806, 6.01806
"SMAStrip (Nitinol)".878, 6.02092, 6.02092, 6.02092, 6.02092, 6.02092
"SMAStrip (Nitinol)".879, 6.02463, 6.02463, 6.02463, 6.02463, 6.02463
"SMAStrip (Nitinol)".880, 6.02679, 6.02679, 6.02679, 6.02679, 6.02679
"SMAStrip (Nitinol)".881, 6.03092, 6.03092, 6.03092, 6.03092, 6.03092
"SMAStrip (Nitinol)".882, 6.03199, 6.03199, 6.03199, 6.03199, 6.03199
"SMAStrip (Nitinol)".883, 6.03426, 6.03426, 6.03426, 6.03426, 6.03426
"SMAStrip (Nitinol)".884, 6.03543, 6.03543, 6.03543, 6.03543, 6.03543
"SMAStrip (Nitinol)".885, 6.04046, 6.04046, 6.04046, 6.04046, 6.04046
"SMAStrip (Nitinol)".886, 6.03869, 6.03869, 6.03869, 6.03869, 6.03869
"SMAStrip (Nitinol)".887, 5.95492, 5.95492, 5.95492, 5.95492, 5.95492
"SMAStrip (Nitinol)".888, 5.94458, 5.94458, 5.94458, 5.94458, 5.94458
"SMAStrip (Nitinol)".889, 5.93218, 5.93218, 5.93218, 5.93218, 5.93218
"SMAStrip (Nitinol)".890, 5.91732, 5.91732, 5.91732, 5.91732, 5.91732
"SMAStrip (Nitinol)".891, 5.89886, 5.89886, 5.89886, 5.89886, 5.89886
"SMAStrip (Nitinol)".892, 5.87717, 5.87717, 5.87717, 5.87717, 5.87717
"SMAStrip (Nitinol)".893, 5.85065, 5.85065, 5.85065, 5.85065, 5.85065
"SMAStrip (Nitinol)".894, 5.81903, 5.81903, 5.81903, 5.81903, 5.81903
"SMAStrip (Nitinol)".895, 5.78177, 5.78177, 5.78177, 5.78177, 5.78177
"SMAStrip (Nitinol)".896, 5.73891, 5.73891, 5.73891, 5.73891, 5.73891
"SMAStrip (Nitinol)".897, 5.69464, 5.69464, 5.69464, 5.69464, 5.69464
"SMAStrip (Nitinol)".898, 5.64284, 5.64284, 5.64284, 5.64284, 5.64284
"SMAStrip (Nitinol)".899, 5.58239, 5.58239, 5.58239, 5.58239, 5.58239
"SMAStrip (Nitinol)".900, 5.5207, 5.5207, 5.5207, 5.5207, 5.5207
"SMAStrip (Nitinol)".901, 5.45447, 5.45447, 5.45447, 5.45447, 5.45447
"SMAStrip (Nitinol)".902, 5.33991, 5.33991, 5.33991, 5.33991, 5.33991
"SMAStrip (Nitinol)".903, 5.27694, 5.27694, 5.27694, 5.27694, 5.27694
"SMAStrip (Nitinol)".904, 5.21751, 5.21751, 5.21751, 5.21751, 5.21751
"SMAStrip (Nitinol)".905, 5.16244, 5.16244, 5.16244, 5.16244, 5.16244
"SMAStrip (Nitinol)".906, 5.11135, 5.11135, 5.11135, 5.11135, 5.11135
"SMAStrip (Nitinol)".907, 5.06645, 5.06645, 5.06645, 5.06645, 5.06645
"SMAStrip (Nitinol)".908, 5.02973, 5.02973, 5.02973, 5.02973, 5.02973
"SMAStrip (Nitinol)".909, 5.00007, 5.00007, 5.00007, 5.00007, 5.00007
"SMAStrip (Nitinol)".910, 4.9776, 4.9776, 4.9776, 4.9776, 4.9776
"SMAStrip (Nitinol)".911, 4.96253, 4.96253, 4.96253, 4.96253, 4.96253
"SMAStrip (Nitinol)".912, 4.95522, 4.95522, 4.95522, 4.95522, 4.95522
"SMAStrip (Nitinol)".913, 4.96552, 4.96552, 4.96552, 4.96552, 4.96552
"SMAStrip (Nitinol)".914, 4.98262, 4.98262, 4.98262, 4.98262, 4.98262
"SMAStrip (Nitinol)".915, 5.00597, 5.00597, 5.00597, 5.00597, 5.00597
"SMAStrip (Nitinol)".916, 5.0341, 5.0341, 5.0341, 5.0341, 5.0341
"SMAStrip (Nitinol)".917, 5.07226, 5.07226, 5.07226, 5.07226, 5.07226
"SMAStrip (Nitinol)".918, 5.11876, 5.11876, 5.11876, 5.11876, 5.11876
"SMAStrip (Nitinol)".919, 5.16746, 5.16746, 5.16746, 5.16746, 5.16746
"SMAStrip (Nitinol)".920, 5.22347, 5.22347, 5.22347, 5.22347, 5.22347
"SMAStrip (Nitinol)".921, 5.28426, 5.28426, 5.28426, 5.28426, 5.28426
"SMAStrip (Nitinol)".922, 5.34784, 5.34784, 5.34784, 5.34784, 5.34784
"SMAStrip (Nitinol)".923, 5.41894, 5.41894, 5.41894, 5.41894, 5.41894
"SMAStrip (Nitinol)".924, 5.48626, 5.48626, 5.48626, 5.48626, 5.48626
"SMAStrip (Nitinol)".925, 5.54904, 5.54904, 5.54904, 5.54904, 5.54904
"SMAStrip (Nitinol)".926, 5.60725, 5.60725, 5.60725, 5.60725, 5.60725
"SMAStrip (Nitinol)".927, 5.66108, 5.66108, 5.66108, 5.66108, 5.66108
"SMAStrip (Nitinol)".928, 5.70721, 5.70721, 5.70721, 5.70721, 5.70721
"SMAStrip (Nitinol)".929, 5.75508, 5.75508, 5.75508, 5.75508, 5.75508
"SMAStrip (Nitinol)".930, 5.79386, 5.79386, 5.79386, 5.79386, 5.79386
"SMAStrip (Nitinol)".931, 5.82907, 5.82907, 5.82907, 5.82907, 5.82907
"SMAStrip (Nitinol)".932, 5.86083, 5.86083, 5.86083, 5.86083, 5.86083
"SMAStrip (Nitinol)".933, 5.88506, 5.88506, 5.88506, 5.88506, 5.88506
"SMAStrip (Nitinol)".934, 5.90505, 5.90505, 5.90505, 5.90505, 5.90505
"SMAStrip (Nitinol)".935, 5.92383, 5.92383, 5.92383, 5.92383, 5.92383
"SMAStrip (Nitinol)".936, 5.93693, 5.93693, 5.93693, 5.93693, 5.93693
"SMAStrip (Nitinol)".937, 5.94752, 5.94752, 5.94752, 5.94752, 5.94752
"SMAStrip (Nitinol)".938, 5.31979, 5.31979, 5.31979, 5.31979, 5.31979
"SMAStrip (Nitinol)".939, 5.25748, 5.25748, 5.25748, 5.25748, 5.25748
"SMAStrip (Nitinol)".940, 5.19574, 5.19574, 5.19574, 5.19574, 5.19574
"SMAStrip (Nitinol)".941, 5.13826, 5.13826, 5.13826, 5.13826, 5.13826
"SMAStrip (Nitinol)".942, 5.08639, 5.08639, 5.08639, 5.08639, 5.08639
"SMAStrip (Nitinol)".943, 5.15339, 5.15339, 5.15339, 5.15339, 5.15339
"SMAStrip (Nitinol)".944, 5.20726, 5.20726, 5.20726, 5.20726, 5.20726
"SMAStrip (Nitinol)".945, 5.27057, 5.27057, 5.27057, 5.27057, 5.27057
"SMAStrip (Nitinol)".946, 5.34047, 5.34047, 5.34047, 5.34047, 5.34047
"SMAStrip (Nitinol)".947, 6.03932, 6.03932, 6.03932, 6.03932, 6.03932
"SMAStrip (Nitinol)".948, 6.03903, 6.03903, 6.03903, 6.03903, 6.03903
"SMAStrip (Nitinol)".949, 6.03304, 6.03304, 6.03304, 6.03304, 6.03304
"SMAStrip (Nitinol)".950, 6.03246, 6.03246, 6.03246, 6.03246, 6.03246
"SMAStrip (Nitinol)".951, 6.03025, 6.03025, 6.03025, 6.03025, 6.03025
"SMAStrip (Nitinol)".952, 6.02904, 6.02904, 6.02904, 6.02904, 6.02904
"SMAStrip (Nitinol)".953, 6.04179, 6.04179, 6.04179, 6.04179, 6.04179
"SMAStrip (Nitinol)".954, 6.04238, 6.04238, 6.04238, 6.04238, 6.04238
"SMAStrip (Nitinol)".955, 6.02859, 6.02859, 6.02859, 6.02859, 6.02859
"SMAStrip (Nitinol)".956, 6.04221, 6.04221, 6.04221, 6.04221, 6.04221
"SMAStrip (Nitinol)".957, 6.03457, 6.03457, 6.03457, 6.03457, 6.03457
"SMAStrip (Nitinol)".958, 6.02795, 6.02795, 6.02795, 6.02795, 6.02795
"SMAStrip (Nitinol)".959, 6.02212, 6.02212, 6.02212, 6.02212, 6.02212
"SMAStrip (Nitinol)".960, 6.01713, 6.01713, 6.01713, 6.01713, 6.01713
"SMAStrip (Nitinol)".961, 6.01355, 6.01355, 6.01355, 6.01355, 6.01355
"SMAStrip (Nitinol)".962, 6.00947, 6.00947, 6.00947, 6.00947, 6.00947
"SMAStrip (Nitinol)".963, 6.00537, 6.00537, 6.00537, 6.00537, 6.00537
"SMAStrip (Nitinol)".964, 6.00199, 6.00199, 6.00199, 6.00199, 6.00199
"SMAStrip (Nitinol)".965, 5.99768, 5.99768, 5.99768, 5.99768, 5.99768
"SMAStrip (Nitinol)".966, 5.99203, 5.99203, 5.99203, 5.99203, 5.99203
"SMAStrip (Nitinol)".967, 5.98468, 5.98468, 5.98468, 5.98468, 5.98468
"SMAStrip (Nitinol)".968, 5.97628, 5.97628, 5.97628, 5.97628, 5.97628
"SMAStrip (Nitinol)".969, 5.96679, 5.96679, 5.96679, 5.96679, 5.96679
"SMAStrip (Nitinol)".970, 5.95606, 5.95606, 5.95606, 5.95606, 5.95606
"SMAStrip (Nitinol)".971, 5.9542, 5.9542, 5.9542, 5.9542, 5.9542
"SMAStrip (Nitinol)".972, 5.93951, 5.93951, 5.93951, 5.93951, 5.93951
"SMAStrip (Nitinol)".973, 5.92233, 5.92233, 5.92233, 5.92233, 5.92233
"SMAStrip (Nitinol)".974, 5.90204, 5.90204, 5.90204, 5.90204, 5.90204
"SMAStrip (Nitinol)".975, 5.87914, 5.87914, 5.87914, 5.87914, 5.87914
"SMAStrip (Nitinol)".976, 5.85366, 5.85366, 5.85366, 5.85366, 5.85366
"SMAStrip (Nitinol)".977, 5.78589, 5.78589, 5.78589, 5.78589, 5.78589
"SMAStrip (Nitinol)".978, 5.75486, 5.75486, 5.75486, 5.75486, 5.75486
"SMAStrip (Nitinol)".979, 5.70381, 5.70381, 5.70381, 5.70381, 5.70381
"SMAStrip (Nitinol)".980, 5.60962, 5.60962, 5.60962, 5.60962, 5.60962
"SMAStrip (Nitinol)".981, 5.53403, 5.53403, 5.53403, 5.53403, 5.53403
"SMAStrip (Nitinol)".982, 5.49962, 5.49962, 5.49962, 5.49962, 5.49962
"SMAStrip (Nitinol)".983, 5.41091, 5.41091, 5.41091, 5.41091, 5.41091
"SMAStrip (Nitinol)".984, 5.33709, 5.33709, 5.33709, 5.33709, 5.33709
"SMAStrip (Nitinol)".985, 5.27753, 5.27753, 5.27753, 5.27753, 5.27753
"SMAStrip (Nitinol)".986, 5.22185, 5.22185, 5.22185, 5.22185, 5.22185
"SMAStrip (Nitinol)".987, 5.17547, 5.17547, 5.17547, 5.17547, 5.17547
"SMAStrip (Nitinol)".988, 5.09566, 5.09566, 5.09566, 5.09566, 5.09566
"SMAStrip (Nitinol)".989, 5.06497, 5.06497, 5.06497, 5.06497, 5.06497
"SMAStrip (Nitinol)".990, 5.06208, 5.06208, 5.06208, 5.06208, 5.06208
"SMAStrip (Nitinol)".991, 5.02376, 5.02376, 5.02376, 5.02376, 5.02376
"SMAStrip (Nitinol)".992, 5.00523, 5.00523, 5.00523, 5.00523, 5.00523
"SMAStrip (Nitinol)".993, 5.00199, 5.00199, 5.00199, 5.00199, 5.00199
"SMAStrip (Nitinol)".994, 5.00919, 5.00919, 5.00919, 5.00919, 5.00919
"SMAStrip (Nitinol)".995, 5.01907, 5.01907, 5.01907, 5.01907, 5.01907
"SMAStrip (Nitinol)".996, 5.07262, 5.07262, 5.07262, 5.07262, 5.07262
"SMAStrip (Nitinol)".997, 5.09349, 5.09349, 5.09349, 5.09349, 5.09349
"SMAStrip (Nitinol)".998, 5.12435, 5.12435, 5.12435, 5.12435, 5.12435
"SMAStrip (Nitinol)".999, 5.16031, 5.16031, 5.16031, 5.16031, 5.16031
"SMAStrip (Nitinol)".1000, 5.20547, 5.20547, 5.20547, 5.20547, 5.20547
"SMAStrip (Nitinol)".1001, 5.26002, 5.26002, 5.26002, 5.26002, 5.26002
"SMAStrip (Nitinol)".1002, 5.33156, 5.33156, 5.33156, 5.33156, 5.33156
"SMAStrip (Nitinol)".1003, 5.43901, 5.43901, 5.43901, 5.43901, 5.43901
"SMAStrip (Nitinol)".1004, 5.53297, 5.53297, 5.53297, 5.53297, 5.53297
"SMAStrip (Nitinol)".1005, 5.6251, 5.6251, 5.6251, 5.6251, 5.6251
"SMAStrip (Nitinol)".1006, 5.7186, 5.7186, 5.7186, 5.7186, 5.7186
"SMAStrip (Nitinol)".1007, 5.7471, 5.7471, 5.7471, 5.7471, 5.7471
"SMAStrip (Nitinol)".1008, 5.77075, 5.77075, 5.77075, 5.77075, 5.77075
"SMAStrip (Nitinol)".1009, 5.79626, 5.79626, 5.79626, 5.79626, 5.79626
"SMAStrip (Nitinol)".1010, 5.82354, 5.82354, 5.82354, 5.82354, 5.82354
"SMAStrip (Nitinol)".1011, 5.88301, 5.88301, 5.88301, 5.88301, 5.88301
"SMAStrip (Nitinol)".1012, 5.9141, 5.9141, 5.9141, 5.9141, 5.9141
"SMAStrip (Nitinol)".1013, 5.94967, 5.94967, 5.94967, 5.94967, 5.94967
"SMAStrip (Nitinol)".1014, 5.94575, 5.94575, 5.94575, 5.94575, 5.94575
"SMAStrip (Nitinol)".1015, 5.97345, 5.97345, 5.97345, 5.97345, 5.97345
"SMAStrip (Nitinol)".1016, 5.97786, 5.97786, 5.97786, 5.97786, 5.97786
"SMAStrip (Nitinol)".1017, 5.98416, 5.98416, 5.98416, 5.98416, 5.98416
"SMAStrip (Nitinol)".1018, 5.99037, 5.99037, 5.99037, 5.99037, 5.99037
"SMAStrip (Nitinol)".1019, 5.9962, 5.9962, 5.9962, 5.9962, 5.9962
"SMAStrip (Nitinol)".1020, 6.0014, 6.0014, 6.0014, 6.0014, 6.0014
"SMAStrip (Nitinol)".1021, 6.00614, 6.00614, 6.00614, 6.00614, 6.00614
"SMAStrip (Nitinol)".1022, 6.00999, 6.00999, 6.00999, 6.00999, 6.00999
"SMAStrip (Nitinol)".1023, 6.01561, 6.01561, 6.01561, 6.01561, 6.01561
"SMAStrip (Nitinol)".1024, 6.01885, 6.01885, 6.01885, 6.01885, 6.01885
"SMAStrip (Nitinol)".1025, 6.0225, 6.0225, 6.0225, 6.0225, 6.0225
"SMAStrip (Nitinol)".1026, 6.02625, 6.02625, 6.02625, 6.02625, 6.02625
"SMAStrip (Nitinol)".1027, 6.02962, 6.02962, 6.02962, 6.02962, 6.02962
"SMAStrip (Nitinol)".1028, 6.0325, 6.0325, 6.0325, 6.0325, 6.0325
"SMAStrip (Nitinol)".1029, 6.03518, 6.03518, 6.03518, 6.03518, 6.03518
"SMAStrip (Nitinol)".1030, 6.03774, 6.03774, 6.03774, 6.03774, 6.03774
"SMAStrip (Nitinol)".1031, 6.03993, 6.03993, 6.03993, 6.03993, 6.03993
"SMAStrip (Nitinol)".1032, 6.04168, 6.04168, 6.04168, 6.04168, 6.04168
"SMAStrip (Nitinol)".1033, 6.04345, 6.04345, 6.04345, 6.04345, 6.04345
"SMAStrip (Nitinol)".1034, 6.03567, 6.03567, 6.03567, 6.03567, 6.03567
"SMAStrip (Nitinol)".1035, 6.04109, 6.04109, 6.04109, 6.04109, 6.04109
"SMAStrip (Nitinol)".1036, 6.05307, 6.05307, 6.05307, 6.05307, 6.05307
"SMAStrip (Nitinol)".1037, 6.05346, 6.05346, 6.05346, 6.05346, 6.05346
"SMAStrip (Nitinol)".1038, 6.05511, 6.05511, 6.05511, 6.05511, 6.05511
"SMAStrip (Nitinol)".1039, 6.0282, 6.0282, 6.0282, 6.0282, 6.0282
"SMAStrip (Nitinol)".1040, 6.02705, 6.02705, 6.02705, 6.02705, 6.02705
"SMAStrip (Nitinol)".1041, 6.02602, 6.02602, 6.02602, 6.02602, 6.02602
"SMAStrip (Nitinol)".1042, 5.997, 5.997, 5.997, 5.997, 5.997
"SMAStrip (Nitinol)".1043, 5.99369, 5.99369, 5.99369, 5.99369, 5.99369
"SMAStrip (Nitinol)".1044, 5.99045, 5.99045, 5.99045, 5.99045, 5.99045
"SMAStrip (Nitinol)".1045, 5.9858, 5.9858, 5.9858, 5.9858, 5.9858
"SMAStrip (Nitinol)".1046, 5.98061, 5.98061, 5.98061, 5.98061, 5.98061
"SMAStrip (Nitinol)".1047, 5.97439, 5.97439, 5.97439, 5.97439, 5.97439
"SMAStrip (Nitinol)".1048, 5.96621, 5.96621, 5.96621, 5.96621, 5.96621
"SMAStrip (Nitinol)".1049, 5.95844, 5.95844, 5.95844, 5.95844, 5.95844
"SMAStrip (Nitinol)".1050, 5.94936, 5.94936, 5.94936, 5.94936, 5.94936
"SMAStrip (Nitinol)".1051, 5.93864, 5.93864, 5.93864, 5.93864, 5.93864
"SMAStrip (Nitinol)".1052, 5.94378, 5.94378, 5.94378, 5.94378, 5.94378
"SMAStrip (Nitinol)".1053, 5.93021, 5.93021, 5.93021, 5.93021, 5.93021
"SMAStrip (Nitinol)".1054, 5.9138, 5.9138, 5.9138, 5.9138, 5.9138
"SMAStrip (Nitinol)".1055, 5.89447, 5.89447, 5.89447, 5.89447, 5.89447
"SMAStrip (Nitinol)".1056, 5.8441, 5.8441, 5.8441, 5.8441, 5.8441
"SMAStrip (Nitinol)".1057, 5.81435, 5.81435, 5.81435, 5.81435, 5.81435
"SMAStrip (Nitinol)".1058, 5.7372, 5.7372, 5.7372, 5.7372, 5.7372
"SMAStrip (Nitinol)".1059, 5.68442, 5.68442, 5.68442, 5.68442, 5.68442
"SMAStrip (Nitinol)".1060, 5.63613, 5.63613, 5.63613, 5.63613, 5.63613
"SMAStrip (Nitinol)".1061, 5.55697, 5.55697, 5.55697, 5.55697, 5.55697
"SMAStrip (Nitinol)".1062, 5.51041, 5.51041, 5.51041, 5.51041, 5.51041
"SMAStrip (Nitinol)".1063, 5.46422, 5.46422, 5.46422, 5.46422, 5.46422
"SMAStrip (Nitinol)".1064, 5.42747, 5.42747, 5.42747, 5.42747, 5.42747
"SMAStrip (Nitinol)".1065, 5.33589, 5.33589, 5.33589, 5.33589, 5.33589
"SMAStrip (Nitinol)".1066, 5.26866, 5.26866, 5.26866, 5.26866, 5.26866
"SMAStrip (Nitinol)".1067, 5.20441, 5.20441, 5.20441, 5.20441, 5.20441
"SMAStrip (Nitinol)".1068, 5.15033, 5.15033, 5.15033, 5.15033, 5.15033
"SMAStrip (Nitinol)".1069, 5.06598, 5.06598, 5.06598, 5.06598, 5.06598
"SMAStrip (Nitinol)".1070, 5.0369, 5.0369, 5.0369, 5.0369, 5.0369
"SMAStrip (Nitinol)".1071, 5.01931, 5.01931, 5.01931, 5.01931, 5.01931
"SMAStrip (Nitinol)".1072, 5.0127, 5.0127, 5.0127, 5.0127, 5.0127
"SMAStrip (Nitinol)".1073, 4.98408, 4.98408, 4.98408, 4.98408, 4.98408
"SMAStrip (Nitinol)".1074, 4.96133, 4.96133, 4.96133, 4.96133, 4.96133
"SMAStrip (Nitinol)".1075, 4.97181, 4.97181, 4.97181, 4.97181, 4.97181
"SMAStrip (Nitinol)".1076, 4.98677, 4.98677, 4.98677, 4.98677, 4.98677
"SMAStrip (Nitinol)".1077, 5.02754, 5.02754, 5.02754, 5.02754, 5.02754
"SMAStrip (Nitinol)".1078, 5.04499, 5.04499, 5.04499, 5.04499, 5.04499
"SMAStrip (Nitinol)".1079, 5.07683, 5.07683, 5.07683, 5.07683, 5.07683
"SMAStrip (Nitinol)".1080, 5.16148, 5.16148, 5.16148, 5.16148, 5.16148
"SMAStrip (Nitinol)".1081, 5.21673, 5.21673, 5.21673, 5.21673, 5.21673
"SMAStrip (Nitinol)".1082, 5.27475, 5.27475, 5.27475, 5.27475, 5.27475
"SMAStrip (Nitinol)".1083, 5.32671, 5.32671, 5.32671, 5.32671, 5.32671
"SMAStrip (Nitinol)".1084, 5.37579, 5.37579, 5.37579, 5.37579, 5.37579
"SMAStrip (Nitinol)".1085, 5.42495, 5.42495, 5.42495, 5.42495, 5.42495
"SMAStrip (Nitinol)".1086, 5.48495, 5.48495, 5.48495, 5.48495, 5.48495
"SMAStrip (Nitinol)".1087, 5.55431, 5.55431, 5.55431, 5.55431, 5.55431
"SMAStrip (Nitinol)".1088, 5.65027, 5.65027, 5.65027, 5.65027, 5.65027
"SMAStrip (Nitinol)".1089, 5.68647, 5.68647, 5.68647, 5.68647, 5.68647
"SMAStrip (Nitinol)".1090, 5.72034, 5.72034, 5.72034, 5.72034, 5.72034
"SMAStrip (Nitinol)".1091, 5.77916, 5.77916, 5.77916, 5.77916, 5.77916
"SMAStrip (Nitinol)".1092, 5.81161, 5.81161, 5.81161, 5.81161, 5.81161
"SMAStrip (Nitinol)".1093, 5.84258, 5.84258, 5.84258, 5.84258, 5.84258
"SMAStrip (Nitinol)".1094, 5.87156, 5.87156, 5.87156, 5.87156, 5.87156
"SMAStrip (Nitinol)".1095, 5.92053, 5.92053, 5.92053, 5.92053, 5.92053
"SMAStrip (Nitinol)".1096, 5.9383, 5.9383, 5.9383, 5.9383, 5.9383
"SMAStrip (Nitinol)".1097, 5.95015, 5.95015, 5.95015, 5.95015, 5.95015
"SMAStrip (Nitinol)".1098, 5.95896, 5.95896, 5.95896, 5.95896, 5.95896
"SMAStrip (Nitinol)".1099, 5.9667, 5.9667, 5.9667, 5.9667, 5.9667
"SMAStrip (Nitinol)".1100, 5.97361, 5.97361, 5.97361, 5.97361, 5.97361
"SMAStrip (Nitinol)".1101, 5.97988, 5.97988, 5.97988, 5.97988, 5.97988
"SMAStrip (Nitinol)".1102, 5.98549, 5.98549, 5.98549, 5.98549, 5.98549
"SMAStrip (Nitinol)".1103, 5.99047, 5.99047, 5.99047, 5.99047, 5.99047
"SMAStrip (Nitinol)".1104, 5.99481, 5.99481, 5.99481, 5.99481, 5.99481
"SMAStrip (Nitinol)".1105, 5.99873, 5.99873, 5.99873, 5.99873, 5.99873
"SMAStrip (Nitinol)".1106, 6.00282, 6.00282, 6.00282, 6.00282, 6.00282
"SMAStrip (Nitinol)".1107, 6.02813, 6.02813, 6.02813, 6.02813, 6.02813
"SMAStrip (Nitinol)".1108, 6.03025, 6.03025, 6.03025, 6.03025, 6.03025
"SMAStrip (Nitinol)".1109, 6.03291, 6.03291, 6.03291, 6.03291, 6.03291
"SMAStrip (Nitinol)".1110, 5.679, 5.679, 5.679, 5.679, 5.679
"SMAStrip (Nitinol)".1111, 5.57042, 5.57042, 5.57042, 5.57042, 5.57042
"SMAStrip (Nitinol)".1112, 5.51839, 5.51839, 5.51839, 5.51839, 5.51839
"SMAStrip (Nitinol)".1113, 5.45798, 5.45798, 5.45798, 5.45798, 5.45798
"SMAStrip (Nitinol)".1114, 5.39639, 5.39639, 5.39639, 5.39639, 5.39639
"SMAStrip (Nitinol)".1115, 5.33922, 5.33922, 5.33922, 5.33922, 5.33922
"SMAStrip (Nitinol)".1116, 5.25456, 5.25456, 5.25456, 5.25456, 5.25456
"SMAStrip (Nitinol)".1117, 5.18843, 5.18843, 5.18843, 5.18843, 5.18843
"SMAStrip (Nitinol)".1118, 5.13152, 5.13152, 5.13152, 5.13152, 5.13152
"SMAStrip (Nitinol)".1119, 5.08341, 5.08341, 5.08341, 5.08341, 5.08341
"SMAStrip (Nitinol)".1120, 5.04357, 5.04357, 5.04357, 5.04357, 5.04357
"SMAStrip (Nitinol)".1121, 5.00757, 5.00757, 5.00757, 5.00757, 5.00757
"SMAStrip (Nitinol)".1122, 4.98257, 4.98257, 4.98257, 4.98257, 4.98257
"SMAStrip (Nitinol)".1123, 4.9632, 4.9632, 4.9632, 4.9632, 4.9632
"SMAStrip (Nitinol)".1124, 4.93961, 4.93961, 4.93961, 4.93961, 4.93961
"SMAStrip (Nitinol)".1125, 4.93495, 4.93495, 4.93495, 4.93495, 4.93495
"SMAStrip (Nitinol)".1126, 4.94691, 4.94691, 4.94691, 4.94691, 4.94691
"SMAStrip (Nitinol)".1127, 4.97643, 4.97643, 4.97643, 4.97643, 4.97643
"SMAStrip (Nitinol)".1128, 5.00088, 5.00088, 5.00088, 5.00088, 5.00088
"SMAStrip (Nitinol)".1129, 5.03434, 5.03434, 5.03434, 5.03434, 5.03434
"SMAStrip (Nitinol)".1130, 5.07834, 5.07834, 5.07834, 5.07834, 5.07834
"SMAStrip (Nitinol)".1131, 5.12767, 5.12767, 5.12767, 5.12767, 5.12767
"SMAStrip (Nitinol)".1132, 5.18272, 5.18272, 5.18272, 5.18272, 5.18272
"SMAStrip (Nitinol)".1133, 5.23803, 5.23803, 5.23803, 5.23803, 5.23803
"SMAStrip (Nitinol)".1134, 5.29725, 5.29725, 5.29725, 5.29725, 5.29725
"SMAStrip (Nitinol)".1135, 5.35953, 5.35953, 5.35953, 5.35953, 5.35953
"SMAStrip (Nitinol)".1136, 5.42204, 5.42204, 5.42204, 5.42204, 5.42204
"SMAStrip (Nitinol)".1137, 5.48912, 5.48912, 5.48912, 5.48912, 5.48912
"SMAStrip (Nitinol)".1138, 5.57318, 5.57318, 5.57318, 5.57318, 5.57318
"SMAStrip (Nitinol)".1139, 5.63467, 5.63467, 5.63467, 5.63467, 5.63467
"SMAStrip (Nitinol)".1140, 5.68442, 5.68442, 5.68442, 5.68442, 5.68442
"SMAStrip (Nitinol)".1141, 6.06794, 6.06794, 6.06794, 6.06794, 6.06794
"SMAStrip (Nitinol)".1142, 6.03328, 6.03328, 6.03328, 6.03328, 6.03328
"SMAStrip (Nitinol)".1143, 6.02704, 6.02704, 6.02704, 6.02704, 6.02704
"SMAStrip (Nitinol)".1144, 6.02056, 6.02056, 6.02056, 6.02056, 6.02056
"SMAStrip (Nitinol)".1145, 6.01203, 6.01203, 6.01203, 6.01203, 6.01203
"SMAStrip (Nitinol)".1146, 6.00085, 6.00085, 6.00085, 6.00085, 6.00085
"SMAStrip (Nitinol)".1147, 5.98795, 5.98795, 5.98795, 5.98795, 5.98795
"SMAStrip (Nitinol)".1148, 5.97336, 5.97336, 5.97336, 5.97336, 5.97336
"SMAStrip (Nitinol)".1149, 5.9536, 5.9536, 5.9536, 5.9536, 5.9536
"SMAStrip (Nitinol)".1150, 5.92171, 5.92171, 5.92171, 5.92171, 5.92171
"SMAStrip (Nitinol)".1151, 5.86641, 5.86641, 5.86641, 5.86641, 5.86641
"SMAStrip (Nitinol)".1152, 5.77248, 5.77248, 5.77248, 5.77248, 5.77248
"SMAStrip (Nitinol)".1153, 5.63005, 5.63005, 5.63005, 5.63005, 5.63005
"SMAStrip (Nitinol)".1154, 5.44532, 5.44532, 5.44532, 5.44532, 5.44532
"SMAStrip (Nitinol)".1155, 5.24695, 5.24695, 5.24695, 5.24695, 5.24695
"SMAStrip (Nitinol)".1156, 5.07455, 5.07455, 5.07455, 5.07455, 5.07455
"SMAStrip (Nitinol)".1157, 4.96207, 4.96207, 4.96207, 4.96207, 4.96207
"SMAStrip (Nitinol)".1158, 4.91787, 4.91787, 4.91787, 4.91787, 4.91787
"SMAStrip (Nitinol)".1159, 4.94572, 4.94572, 4.94572, 4.94572, 4.94572
"SMAStrip (Nitinol)".1160, 5.04588, 5.04588, 5.04588, 5.04588, 5.04588
"SMAStrip (Nitinol)".1161, 5.2056, 5.2056, 5.2056, 5.2056, 5.2056
"SMAStrip (Nitinol)".1162, 5.39909, 5.39909, 5.39909, 5.39909, 5.39909
"SMAStrip (Nitinol)".1163, 5.59022, 5.59022, 5.59022, 5.59022, 5.59022
"SMAStrip (Nitinol)".1164, 5.74402, 5.74402, 5.74402, 5.74402, 5.74402
"SMAStrip (Nitinol)".1165, 5.84979, 5.84979, 5.84979, 5.84979, 5.84979
"SMAStrip (Nitinol)".1166, 5.91303, 5.91303, 5.91303, 5.91303, 5.91303
"SMAStrip (Nitinol)".1167, 5.94796, 5.94796, 5.94796, 5.94796, 5.94796
"SMAStrip (Nitinol)".1168, 5.96941, 5.96941, 5.96941, 5.96941, 5.96941
"SMAStrip (Nitinol)".1169, 5.98544, 5.98544, 5.98544, 5.98544, 5.98544
"SMAStrip (Nitinol)".1170, 5.99874, 5.99874, 5.99874, 5.99874, 5.99874
"SMAStrip (Nitinol)".1171, 6.00971, 6.00971, 6.00971, 6.00971, 6.00971
"SMAStrip (Nitinol)".1172, 6.01947, 6.01947, 6.01947, 6.01947, 6.01947
"SMAStrip (Nitinol)".1173, 6.02492, 6.02492, 6.02492, 6.02492, 6.02492
"SMAStrip (Nitinol)".1174, 6.02993, 6.02993, 6.02993, 6.02993, 6.02993
"SMAStrip (Nitinol)".1175, 6.05087, 6.05087, 6.05087, 6.05087, 6.05087
"SMAStrip (Nitinol)".1176, 6.06766, 6.06766, 6.06766, 6.06766, 6.06766
"SMAStrip (Nitinol)".1177, 6.02787, 6.02787, 6.02787, 6.02787, 6.02787
"SMAStrip (Nitinol)".1178, 6.02508, 6.02508, 6.02508, 6.02508, 6.02508
"SMAStrip (Nitinol)".1179, 6.01847, 6.01847, 6.01847, 6.01847, 6.01847
"SMAStrip (Nitinol)".1180, 6.00973, 6.00973, 6.00973, 6.00973, 6.00973
"SMAStrip (Nitinol)".1181, 5.99893, 5.99893, 5.99893, 5.99893, 5.99893
"SMAStrip (Nitinol)".1182, 5.98634, 5.98634, 5.98634, 5.98634, 5.98634
"SMAStrip (Nitinol)".1183, 5.97117, 5.97117, 5.97117, 5.97117, 5.97117
"SMAStrip (Nitinol)".1184, 5.95068, 5.95068, 5.95068, 5.95068, 5.95068
"SMAStrip (Nitinol)".1185, 5.91807, 5.91807, 5.91807, 5.91807, 5.91807
"SMAStrip (Nitinol)".1186, 5.86079, 5.86079, 5.86079, 5.86079, 5.86079
"SMAStrip (Nitinol)".1187, 5.76308, 5.76308, 5.76308, 5.76308, 5.76308
"SMAStrip (Nitinol)".1188, 5.6164, 5.6164, 5.6164, 5.6164, 5.6164
"SMAStrip (Nitinol)".1189, 5.43102, 5.43102, 5.43102, 5.43102, 5.43102
"SMAStrip (Nitinol)".1190, 5.23703, 5.23703, 5.23703, 5.23703, 5.23703
"SMAStrip (Nitinol)".1191, 5.07153, 5.07153, 5.07153, 5.07153, 5.07153
"SMAStrip (Nitinol)".1192, 4.95981, 4.95981, 4.95981, 4.95981, 4.95981
"SMAStrip (Nitinol)".1193, 4.91753, 4.91753, 4.91753, 4.91753, 4.91753
"SMAStrip (Nitinol)".1194, 4.9513, 4.9513, 4.9513, 4.9513, 4.9513
"SMAStrip (Nitinol)".1195, 5.05702, 5.05702, 5.05702, 5.05702, 5.05702
"SMAStrip (Nitinol)".1196, 5.22195, 5.22195, 5.22195, 5.22195, 5.22195
"SMAStrip (Nitinol)".1197, 5.41906, 5.41906, 5.41906, 5.41906, 5.41906
"SMAStrip (Nitinol)".1198, 5.60824, 5.60824, 5.60824, 5.60824, 5.60824
"SMAStrip (Nitinol)".1199, 5.75999, 5.75999, 5.75999, 5.75999, 5.75999
"SMAStrip (Nitinol)".1200, 5.86214, 5.86214, 5.86214, 5.86214, 5.86214
"SMAStrip (Nitinol)".1201, 5.92203, 5.92203, 5.92203, 5.92203, 5.92203
"SMAStrip (Nitinol)".1202, 5.9554, 5.9554, 5.9554, 5.9554, 5.9554
"SMAStrip (Nitinol)".1203, 5.97663, 5.97663, 5.97663, 5.97663, 5.97663
"SMAStrip (Nitinol)".1204, 5.99194, 5.99194, 5.99194, 5.99194, 5.99194
"SMAStrip (Nitinol)".1205, 6.00438, 6.00438, 6.00438, 6.00438, 6.00438
"SMAStrip (Nitinol)".1206, 6.01564, 6.01564, 6.01564, 6.01564, 6.01564
"SMAStrip (Nitinol)".1207, 6.02482, 6.02482, 6.02482, 6.02482, 6.02482
"SMAStrip (Nitinol)".1208, 6.03177, 6.03177, 6.03177, 6.03177, 6.03177
"SMAStrip (Nitinol)".1209, 6.03721, 6.03721, 6.03721, 6.03721, 6.03721
"SMAStrip (Nitinol)".1210, 5.95621, 5.95621, 5.95621, 5.95621, 5.95621
"SMAStrip (Nitinol)".1211, 6.02209, 6.02209, 6.02209, 6.02209, 6.02209
"SMAStrip (Nitinol)".1212, 5.83622, 5.83622, 5.83622, 5.83622, 5.83622
"SMAStrip (Nitinol)".1213, 6.01107, 6.01107, 6.01107, 6.01107, 6.01107
"SMAStrip (Nitinol)".1214, 5.76731, 5.76731, 5.76731, 5.76731, 5.76731
"SMAStrip (Nitinol)".1215, 6.01489, 6.01489, 6.01489, 6.01489, 6.01489
"SMAStrip (Nitinol)".1216, 6.01098, 6.01098, 6.01098, 6.01098, 6.01098
"SMAStrip (Nitinol)".1217, 6.01855, 6.01855, 6.01855, 6.01855, 6.01855
"SMAStrip (Nitinol)".1218, 5.81758, 5.81758, 5.81758, 5.81758, 5.81758
"SMAStrip (Nitinol)".1219, 5.87184, 5.87184, 5.87184, 5.87184, 5.87184
"SMAStrip (Nitinol)".1220, 6.01624, 6.01624, 6.01624, 6.01624, 6.01624
"SMAStrip (Nitinol)".1221, 5.80359, 5.80359, 5.80359, 5.80359, 5.80359
"SMAStrip (Nitinol)".1222, 5.84568, 5.84568, 5.84568, 5.84568, 5.84568
"SMAStrip (Nitinol)".1223, 5.96351, 5.96351, 5.96351, 5.96351, 5.96351
"SMAStrip (Nitinol)".1224, 4.93028, 4.93028, 4.93028, 4.93028, 4.93028
"SMAStrip (Nitinol)".1225, 4.92928, 4.92928, 4.92928, 4.92928, 4.92928
"SMAStrip (Nitinol)".1226, 4.93642, 4.93642, 4.93642, 4.93642, 4.93642
"SMAStrip (Nitinol)".1227, 4.93972, 4.93972, 4.93972, 4.93972, 4.93972
"SMAStrip (Nitinol)".1228, 6.05286, 6.05286, 6.05286, 6.05286, 6.05286
"SMAStrip (Nitinol)".1229, 6.08002, 6.08002, 6.08002, 6.08002, 6.08002
"SMAStrip (Nitinol)".1230, 5.05507, 5.05507, 5.05507, 5.05507, 5.05507
"SMAStrip (Nitinol)".1231, 5.00336, 5.00336, 5.00336, 5.00336, 5.00336
"SMAStrip (Nitinol)".1232, 6.03503, 6.03503, 6.03503, 6.03503, 6.03503
"SMAStrip (Nitinol)".1233, 6.03553, 6.03553, 6.03553, 6.03553, 6.03553
"SMAStrip (Nitinol)".1234, 5.92588, 5.92588, 5.92588, 5.92588, 5.92588
"SMAStrip (Nitinol)".1235, 6.00634, 6.00634, 6.00634, 6.00634, 6.00634
"SMAStrip (Nitinol)".1236, 6.04043, 6.04043, 6.04043, 6.04043, 6.04043
"SMAStrip (Nitinol)".1237, 5.01527, 5.01527, 5.01527, 5.01527, 5.01527
"SMAStrip (Nitinol)".1238, 6.04212, 6.04212, 6.04212, 6.04212, 6.04212
"SMAStrip (Nitinol)".1239, 6.03493, 6.03493, 6.03493, 6.03493, 6.03493
"SMAStrip (Nitinol)".1240, 5.04119, 5.04119, 5.04119, 5.04119, 5.04119
"SMAStrip (Nitinol)".1241, 6.00167, 6.00167, 6.00167, 6.00167, 6.00167
"SMAStrip (Nitinol)".1242, 5.7275, 5.7275, 5.7275, 5.7275, 5.7275
"SMAStrip (Nitinol)".1243, 5.96371, 5.96371, 5.96371, 5.96371, 5.96371
"SMAStrip (Nitinol)".1244, 6.00693, 6.00693, 6.00693, 6.00693, 6.00693
"SMAStrip (Nitinol)".1245, 6.0721, 6.0721, 6.0721, 6.0721, 6.0721
"SMAStrip (Nitinol)".1246, 4.95134, 4.95134, 4.95134, 4.95134, 4.95134
"SMAStrip (Nitinol)".1247, 6.08305, 6.08305, 6.08305, 6.08305, 6.08305
"SMAStrip (Nitinol)".1248, 5.91072, 5.91072, 5.91072, 5.91072, 5.91072
"SMAStrip (Nitinol)".1249, 5.96904, 5.96904, 5.96904, 5.96904, 5.96904
"SMAStrip (Nitinol)".1250, 4.97371, 4.97371, 4.97371, 4.97371, 4.97371
"SMAStrip (Nitinol)".1251, 5.89301, 5.89301, 5.89301, 5.89301, 5.89301
"SMAStrip (Nitinol)".1252, 5.97657, 5.97657, 5.97657, 5.97657, 5.97657
"SMAStrip (Nitinol)".1253, 5.98455, 5.98455, 5.98455, 5.98455, 5.98455
"SMAStrip (Nitinol)".1254, 5.99355, 5.99355, 5.99355, 5.99355, 5.99355
"SMAStrip (Nitinol)".1255, 6.04855, 6.04855, 6.04855, 6.04855, 6.04855
"SMAStrip (Nitinol)".1256, 6.07977, 6.07977, 6.07977, 6.07977, 6.07977
"SMAStrip (Nitinol)".1257, 6.06487, 6.06487, 6.06487, 6.06487, 6.06487
"SMAStrip (Nitinol)".1258, 5.97073, 5.97073, 5.97073, 5.97073, 5.97073
"SMAStrip (Nitinol)".1259, 5.91353, 5.91353, 5.91353, 5.91353, 5.91353
"SMAStrip (Nitinol)".1260, 5.98651, 5.98651, 5.98651, 5.98651, 5.98651
"SMAStrip (Nitinol)".1261, 5.864, 5.864, 5.864, 5.864, 5.864
"SMAStrip (Nitinol)".1262, 4.9577, 4.9577, 4.9577, 4.9577, 4.9577
"SMAStrip (Nitinol)".1263, 6.06881, 6.06881, 6.06881, 6.06881, 6.06881
"SMAStrip (Nitinol)".1264, 6.02196, 6.02196, 6.02196, 6.02196, 6.02196
"SMAStrip (Nitinol)".1265, 6.05831, 6.05831, 6.05831, 6.05831, 6.05831
"SMAStrip (Nitinol)".1266, 5.88797, 5.88797, 5.88797, 5.88797, 5.88797
"SMAStrip (Nitinol)".1267, 5.97697, 5.97697, 5.97697, 5.97697, 5.97697
"SMAStrip (Nitinol)".1268, 5.98264, 5.98264, 5.98264, 5.98264, 5.98264
"SMAStrip (Nitinol)".1269, 4.98287, 4.98287, 4.98287, 4.98287, 4.98287
"SMAStrip (Nitinol)".1270, 6.07815, 6.07815, 6.07815, 6.07815, 6.07815
"SMAStrip (Nitinol)".1271, 5.78095, 5.78095, 5.78095, 5.78095, 5.78095
"SMAStrip (Nitinol)".1272, 6.04579, 6.04579, 6.04579, 6.04579, 6.04579
"SMAStrip (Nitinol)".1273, 6.05625, 6.05625, 6.05625, 6.05625, 6.05625
"SMAStrip (Nitinol)".1274, 6.04267, 6.04267, 6.04267, 6.04267, 6.04267
"SMAStrip (Nitinol)".1275, 6.02382, 6.02382, 6.02382, 6.02382, 6.02382
"SMAStrip (Nitinol)".1276, 6.0389, 6.0389, 6.0389, 6.0389, 6.0389
"SMAStrip (Nitinol)".1277, 6.0439, 6.0439, 6.0439, 6.0439, 6.0439
"SMAStrip (Nitinol)".1278, 6.02519, 6.02519, 6.02519, 6.02519, 6.02519
"SMAStrip (Nitinol)".1279, 5.38685, 5.38685, 5.38685, 5.38685, 5.38685
"SMAStrip (Nitinol)".1280, 5.1014, 5.1014, 5.1014, 5.1014, 5.1014
"SMAStrip (Nitinol)".1281, 4.93217, 4.93217, 4.93217, 4.93217, 4.93217
"SMAStrip (Nitinol)".1282, 5.62343, 5.62343, 5.62343, 5.62343, 5.62343
"SMAStrip (Nitinol)".1283, 6.05128, 6.05128, 6.05128, 6.05128, 6.05128
"SMAStrip (Nitinol)".1284, 6.04364, 6.04364, 6.04364, 6.04364, 6.04364
"SMAStrip (Nitinol)".1285, 6.03456, 6.03456, 6.03456, 6.03456, 6.03456
"SMAStrip (Nitinol)".1286, 6.03925, 6.03925, 6.03925, 6.03925, 6.03925
"SMAStrip (Nitinol)".1287, 6.03596, 6.03596, 6.03596, 6.03596, 6.03596
"SMAStrip (Nitinol)".1288, 6.05445, 6.05445, 6.05445, 6.05445, 6.05445
"SMAStrip (Nitinol)".1289, 6.04917, 6.04917, 6.04917, 6.04917, 6.04917
"SMAStrip (Nitinol)".1290, 6.04271, 6.04271, 6.04271, 6.04271, 6.04271
"SMAStrip (Nitinol)".1291, 5.8715, 5.8715, 5.8715, 5.8715, 5.8715
"SMAStrip (Nitinol)".1292, 5.97194, 5.97194, 5.97194, 5.97194, 5.97194
"SMAStrip (Nitinol)".1293, 4.95593, 4.95593, 4.95593, 4.95593, 4.95593
"SMAStrip (Nitinol)".1294, 5.59584, 5.59584, 5.59584, 5.59584, 5.59584
"SMAStrip (Nitinol)".1295, 5.72511, 5.72511, 5.72511, 5.72511, 5.72511
"SMAStrip (Nitinol)".1296, 5.10503, 5.10503, 5.10503, 5.10503, 5.10503
"SMAStrip (Nitinol)".1297, 4.95862, 4.95862, 4.95862, 4.95862, 4.95862
"SMAStrip (Nitinol)".1298, 4.96294, 4.96294, 4.96294, 4.96294, 4.96294
"SMAStrip (Nitinol)".1299, 5.11518, 5.11518, 5.11518, 5.11518, 5.11518
"SMAStrip (Nitinol)".1300, 5.75073, 5.75073, 5.75073, 5.75073, 5.75073
"SMAStrip (Nitinol)".1301, 5.89791, 5.89791, 5.89791, 5.89791, 5.89791
"SMAStrip (Nitinol)".1302, 5.97279, 5.97279, 5.97279, 5.97279, 5.97279
"SMAStrip (Nitinol)".1303, 6.01293, 6.01293, 6.01293, 6.01293, 6.01293
"SMAStrip (Nitinol)".1304, 6.07387, 6.07387, 6.07387, 6.07387, 6.07387
"SMAStrip (Nitinol)".1305, 6.05183, 6.05183, 6.05183, 6.05183, 6.05183
"SMAStrip (Nitinol)".1306, 6.07943, 6.07943, 6.07943, 6.07943, 6.07943
"SMAStrip (Nitinol)".1307, 5.40518, 5.40518, 5.40518, 5.40518, 5.40518
"SMAStrip (Nitinol)".1308, 5.63687, 5.63687, 5.63687, 5.63687, 5.63687
"SMAStrip (Nitinol)".1309, 6.04514, 6.04514, 6.04514, 6.04514, 6.04514
"SMAStrip (Nitinol)".1310, 6.0673, 6.0673, 6.0673, 6.0673, 6.0673
"SMAStrip (Nitinol)".1311, 6.07899, 6.07899, 6.07899, 6.07899, 6.07899
"SMAStrip (Nitinol)".1312, 6.04212, 6.04212, 6.04212, 6.04212, 6.04212
"SMAStrip (Nitinol)".1313, 5.92015, 5.92015, 5.92015, 5.92015, 5.92015
"SMAStrip (Nitinol)".1314, 6.05477, 6.05477, 6.05477, 6.05477, 6.05477
"SMAStrip (Nitinol)".1315, 6.05933, 6.05933, 6.05933, 6.05933, 6.05933
"SMAStrip (Nitinol)".1316, 6.0696, 6.0696, 6.0696, 6.0696, 6.0696
"SMAStrip (Nitinol)".1317, 5.99791, 5.99791, 5.99791, 5.99791, 5.99791
"SMAStrip (Nitinol)".1318, 5.10094, 5.10094, 5.10094, 5.10094, 5.10094
"SMAStrip (Nitinol)".1319, 5.0198, 5.0198, 5.0198, 5.0198, 5.0198
"SMAStrip (Nitinol)".1320, 6.05111, 6.05111, 6.05111, 6.05111, 6.05111
"SMAStrip (Nitinol)".1321, 6.0639, 6.0639, 6.0639, 6.0639, 6.0639
"SMAStrip (Nitinol)".1322, 5.99797, 5.99797, 5.99797, 5.99797, 5.99797
"SMAStrip (Nitinol)".1323, 5.62947, 5.62947, 5.62947, 5.62947, 5.62947
"SMAStrip (Nitinol)".1324, 5.54369, 5.54369, 5.54369, 5.54369, 5.54369
"SMAStrip (Nitinol)".1325, 5.50543, 5.50543, 5.50543, 5.50543, 5.50543
"SMAStrip (Nitinol)".1326, 6.05533, 6.05533, 6.05533, 6.05533, 6.05533
"SMAStrip (Nitinol)".1327, 6.06345, 6.06345, 6.06345, 6.06345, 6.06345
"SMAStrip (Nitinol)".1328, 6.07059, 6.07059, 6.07059, 6.07059, 6.07059
"SMAStrip (Nitinol)".1329, 6.07415, 6.07415, 6.07415, 6.07415, 6.07415
"SMAStrip (Nitinol)".1330, 5.92983, 5.92983, 5.92983, 5.92983, 5.92983
"SMAStrip (Nitinol)".1331, 6.07594, 6.07594, 6.07594, 6.07594, 6.07594
"SMAStrip (Nitinol)".1332, 6.07693, 6.07693, 6.07693, 6.07693, 6.07693
"SMAStrip (Nitinol)".1333, 6.06986, 6.06986, 6.06986, 6.06986, 6.06986
"SMAStrip (Nitinol)".1334, 5.468, 5.468, 5.468, 5.468, 5.468
"SMAStrip (Nitinol)".1335, 5.4106, 5.4106, 5.4106, 5.4106, 5.4106
"SMAStrip (Nitinol)".1336, 5.78685, 5.78685, 5.78685, 5.78685, 5.78685
"SMAStrip (Nitinol)".1337, 5.13342, 5.13342, 5.13342, 5.13342, 5.13342
"SMAStrip (Nitinol)".1338, 5.85383, 5.85383, 5.85383, 5.85383, 5.85383
"SMAStrip (Nitinol)".1339, 5.57216, 5.57216, 5.57216, 5.57216, 5.57216
"SMAStrip (Nitinol)".1340, 5.07366, 5.07366, 5.07366, 5.07366, 5.07366
"SMAStrip (Nitinol)".1341, 6.02553, 6.02553, 6.02553, 6.02553, 6.02553
"SMAStrip (Nitinol)".1342, 5.36702, 5.36702, 5.36702, 5.36702, 5.36702
"SMAStrip (Nitinol)".1343, 5.96678, 5.96678, 5.96678, 5.96678, 5.96678
"SMAStrip (Nitinol)".1344, 5.97801, 5.97801, 5.97801, 5.97801, 5.97801
"SMAStrip (Nitinol)".1345, 6.06961, 6.06961, 6.06961, 6.06961, 6.06961
"SMAStrip (Nitinol)".1346, 5.4936, 5.4936, 5.4936, 5.4936, 5.4936
"SMAStrip (Nitinol)".1347, 5.37552, 5.37552, 5.37552, 5.37552, 5.37552
"SMAStrip (Nitinol)".1348, 6.03759, 6.03759, 6.03759, 6.03759, 6.03759
"SMAStrip (Nitinol)".1349, 6.05733, 6.05733, 6.05733, 6.05733, 6.05733
"SMAStrip (Nitinol)".1350, 6.07311, 6.07311, 6.07311, 6.07311, 6.07311
"SMAStrip (Nitinol)".1351, 6.07814, 6.07814, 6.07814, 6.07814, 6.07814
"SMAStrip (Nitinol)".1352, 6.08055, 6.08055, 6.08055, 6.08055, 6.08055
"SMAStrip (Nitinol)".1353, 6.07389, 6.07389, 6.07389, 6.07389, 6.07389
"SMAStrip (Nitinol)".1354, 5.12666, 5.12666, 5.12666, 5.12666, 5.12666
"SMAStrip (Nitinol)".1355, 5.03481, 5.03481, 5.03481, 5.03481, 5.03481
"SMAStrip (Nitinol)".1356, 6.02282, 6.02282, 6.02282, 6.02282, 6.02282
"SMAStrip (Nitinol)".1357, 5.71021, 5.71021, 5.71021, 5.71021, 5.71021
"SMAStrip (Nitinol)".1358, 5.58188, 5.58188, 5.58188, 5.58188, 5.58188
"SMAStrip (Nitinol)".1359, 6.05275, 6.05275, 6.05275, 6.05275, 6.05275
"SMAStrip (Nitinol)".1360, 6.00659, 6.00659, 6.00659, 6.00659, 6.00659
"SMAStrip (Nitinol)".1361, 5.48463, 5.48463, 5.48463, 5.48463, 5.48463
"SMAStrip (Nitinol)".1362, 5.11173, 5.11173, 5.11173, 5.11173, 5.11173
"SMAStrip (Nitinol)".1363, 6.06346, 6.06346, 6.06346, 6.06346, 6.06346
"SMAStrip (Nitinol)".1364, 6.0656, 6.0656, 6.0656, 6.0656, 6.0656
"SMAStrip (Nitinol)".1365, 5.97846, 5.97846, 5.97846, 5.97846, 5.97846
"SMAStrip (Nitinol)".1366, 5.99944, 5.99944, 5.99944, 5.99944, 5.99944
"SMAStrip (Nitinol)".1367, 6.06798, 6.06798, 6.06798, 6.06798, 6.06798
"SMAStrip (Nitinol)".1368, 6.08066, 6.08066, 6.08066, 6.08066, 6.08066
"SMAStrip (Nitinol)".1369, 5.75958, 5.75958, 5.75958, 5.75958, 5.75958
"SMAStrip (Nitinol)".1370, 6.02629, 6.02629, 6.02629, 6.02629, 6.02629
"SMAStrip (Nitinol)".1371, 6.02987, 6.02987, 6.02987, 6.02987, 6.02987
"SMAStrip (Nitinol)".1372, 5.51222, 5.51222, 5.51222, 5.51222, 5.51222
"SMAStrip (Nitinol)".1373, 5.57642, 5.57642, 5.57642, 5.57642, 5.57642
"SMAStrip (Nitinol)".1374, 6.05495, 6.05495, 6.05495, 6.05495, 6.05495
"SMAStrip (Nitinol)".1375, 5.93338, 5.93338, 5.93338, 5.93338, 5.93338
"SMAStrip (Nitinol)".1376, 5.09575, 5.09575, 5.09575, 5.09575, 5.09575
"SMAStrip (Nitinol)".1377, 6.04636, 6.04636, 6.04636, 6.04636, 6.04636
"SMAStrip (Nitinol)".1378, 6.03452, 6.03452, 6.03452, 6.03452, 6.03452
"SMAStrip (Nitinol)".1379, 6.06812, 6.06812, 6.06812, 6.06812, 6.06812
"SMAStrip (Nitinol)".1380, 5.2931, 5.2931, 5.2931, 5.2931, 5.2931
"SMAStrip (Nitinol)".1381, 5.13723, 5.13723, 5.13723, 5.13723, 5.13723
"SMAStrip (Nitinol)".1382, 5.56156, 5.56156, 5.56156, 5.56156, 5.56156
"SMAStrip (Nitinol)".1383, 5.73189, 5.73189, 5.73189, 5.73189, 5.73189
"SMAStrip (Nitinol)".1384, 5.26728, 5.26728, 5.26728, 5.26728, 5.26728
"SMAStrip (Nitinol)".1385, 5.52827, 5.52827, 5.52827, 5.52827, 5.52827
"SMAStrip (Nitinol)".1386, 6.0318, 6.0318, 6.0318, 6.0318, 6.0318
"SMAStrip (Nitinol)".1387, 5.99934, 5.99934, 5.99934, 5.99934, 5.99934
"SMAStrip (Nitinol)".1388, 6.07908, 6.07908, 6.07908, 6.07908, 6.07908
"SMAStrip (Nitinol)".1389, 6.06998, 6.06998, 6.06998, 6.06998, 6.06998
"SMAStrip (Nitinol)".1390, 6.07645, 6.07645, 6.07645, 6.07645, 6.07645
"SMAStrip (Nitinol)".1391, 5.14595, 5.14595, 5.14595, 5.14595, 5.14595
"SMAStrip (Nitinol)".1392, 6.06252, 6.06252, 6.06252, 6.06252, 6.06252
"SMAStrip (Nitinol)".1393, 6.06013, 6.06013, 6.06013, 6.06013, 6.06013
"SMAStrip (Nitinol)".1394, 5.9862, 5.9862, 5.9862, 5.9862, 5.9862
"SMAStrip (Nitinol)".1395, 6.00939, 6.00939, 6.00939, 6.00939, 6.00939
"SMAStrip (Nitinol)".1396, 6.04298, 6.04298, 6.04298, 6.04298, 6.04298
"SMAStrip (Nitinol)".1397, 5.2094, 5.2094, 5.2094, 5.2094, 5.2094
"SMAStrip (Nitinol)".1398, 6.07394, 6.07394, 6.07394, 6.07394, 6.07394
"SMAStrip (Nitinol)".1399, 6.0826, 6.0826, 6.0826, 6.0826, 6.0826
"SMAStrip (Nitinol)".1400, 5.888, 5.888, 5.888, 5.888, 5.888
"SMAStrip (Nitinol)".1401, 6.05982, 6.05982, 6.05982, 6.05982, 6.05982
"SMAStrip (Nitinol)".1402, 6.02496, 6.02496, 6.02496, 6.02496, 6.02496
"SMAStrip (Nitinol)".1403, 6.04386, 6.04386, 6.04386, 6.04386, 6.04386
"SMAStrip (Nitinol)".1404, 5.25894, 5.25894, 5.25894, 5.25894, 5.25894
"SMAStrip (Nitinol)".1405, 5.76585, 5.76585, 5.76585, 5.76585, 5.76585
"SMAStrip (Nitinol)".1406, 5.81144, 5.81144, 5.81144, 5.81144, 5.81144
"SMAStrip (Nitinol)".1407, 5.44951, 5.44951, 5.44951, 5.44951, 5.44951
"SMAStrip (Nitinol)".1408, 6.06167, 6.06167, 6.06167, 6.06167, 6.06167
"SMAStrip (Nitinol)".1409, 5.15475, 5.15475, 5.15475, 5.15475, 5.15475
"SMAStrip (Nitinol)".1410, 6.04055, 6.04055, 6.04055, 6.04055, 6.04055
"SMAStrip (Nitinol)".1411, 6.04655, 6.04655, 6.04655, 6.04655, 6.04655
"SMAStrip (Nitinol)".1412, 5.98431, 5.98431, 5.98431, 5.98431, 5.98431
"SMAStrip (Nitinol)".1413, 5.11093, 5.11093, 5.11093, 5.11093, 5.11093
"SMAStrip (Nitinol)".1414, 6.06958, 6.06958, 6.06958, 6.06958, 6.06958
"SMAStrip (Nitinol)".1415, 5.51457, 5.51457, 5.51457, 5.51457, 5.51457
"SMAStrip (Nitinol)".1416, 5.99904, 5.99904, 5.99904, 5.99904, 5.99904
"SMAStrip (Nitinol)".1417, 6.02113, 6.02113, 6.02113, 6.02113, 6.02113
"SMAStrip (Nitinol)".1418, 6.03359, 6.03359, 6.03359, 6.03359, 6.03359
"SMAStrip (Nitinol)".1419, 6.0416, 6.0416, 6.0416, 6.0416, 6.0416
"SMAStrip (Nitinol)".1420, 5.85868, 5.85868, 5.85868, 5.85868, 5.85868
"SMAStrip (Nitinol)".1421, 6.07476, 6.07476, 6.07476, 6.07476, 6.07476
"SMAStrip (Nitinol)".1422, 6.0777, 6.0777, 6.0777, 6.0777, 6.0777
"SMAStrip (Nitinol)".1423, 5.90231, 5.90231, 5.90231, 5.90231, 5.90231
"SMAStrip (Nitinol)".1424, 5.97759, 5.97759, 5.97759, 5.97759, 5.97759
"SMAStrip (Nitinol)".1425, 6.07624, 6.07624, 6.07624, 6.07624, 6.07624
"SMAStrip (Nitinol)".1426, 6.07841, 6.07841, 6.07841, 6.07841, 6.07841
"SMAStrip (Nitinol)".1427, 6.07516, 6.07516, 6.07516, 6.07516, 6.07516
"SMAStrip (Nitinol)".1428, 6.03992, 6.03992, 6.03992, 6.03992, 6.03992
"SMAStrip (Nitinol)".1429, 5.90412, 5.90412, 5.90412, 5.90412, 5.90412
"SMAStrip (Nitinol)".1430, 5.9894, 5.9894, 5.9894, 5.9894, 5.9894
"SMAStrip (Nitinol)".1431, 6.06341, 6.06341, 6.06341, 6.06341, 6.06341
"SMAStrip (Nitinol)".1432, 5.88527, 5.88527, 5.88527, 5.88527, 5.88527
"SMAStrip (Nitinol)".1433, 6.04736, 6.04736, 6.04736, 6.04736, 6.04736
"SMAStrip (Nitinol)".1434, 6.06328, 6.06328, 6.06328, 6.06328, 6.06328
"SMAStrip (Nitinol)".1435, 6.06512, 6.06512, 6.06512, 6.06512, 6.06512
"SMAStrip (Nitinol)".1436, 6.03607, 6.03607, 6.03607, 6.03607, 6.03607
"SMAStrip (Nitinol)".1437, 6.03913, 6.03913, 6.03913, 6.03913, 6.03913
"SMAStrip (Nitinol)".1438, 6.07887, 6.07887, 6.07887, 6.07887, 6.07887
** ----------------------------------------------------------------
** 
** STEP: Heat_17
** 
*Step, name=Heat_17, nlgeom=YES, inc=200
*Coupled Temperature-displacement, creep=none, deltmx=5.
0.1, 10., 4e-05, 5.
** 
** BOUNDARY CONDITIONS
** 
** Name: FixEdge Type: Symmetry/Antisymmetry/Encastre
*Boundary
Fixed-Set, ENCASTRE
** 
** LOADS
** 
** Name: Load_17   Type: Surface heat flux Using Field: AnalyticalField-1
*Dflux
"SMAStrip (Nitinol)".1, SPOS, 286.741
"SMAStrip (Nitinol)".2, SPOS, 345.27
"SMAStrip (Nitinol)".3, SPOS, 350.394
"SMAStrip (Nitinol)".4, SPOS, 350.268
"SMAStrip (Nitinol)".5, SPOS, 307.008
"SMAStrip (Nitinol)".6, SPOS, 346.696
"SMAStrip (Nitinol)".7, SPOS, 323.002
"SMAStrip (Nitinol)".8, SPOS, 326.575
"SMAStrip (Nitinol)".9, SPOS, 351.695
"SMAStrip (Nitinol)".10, SPOS, 355.022
"SMAStrip (Nitinol)".11, SPOS, 353.864
"SMAStrip (Nitinol)".12, SPOS, 354.734
"SMAStrip (Nitinol)".13, SPOS, 353.856
"SMAStrip (Nitinol)".14, SPOS, 329.797
"SMAStrip (Nitinol)".15, SPOS, 355.371
"SMAStrip (Nitinol)".16, SPOS, 355.069
"SMAStrip (Nitinol)".17, SPOS, 350.874
"SMAStrip (Nitinol)".18, SPOS, 352.882
"SMAStrip (Nitinol)".19, SPOS, 339.941
"SMAStrip (Nitinol)".20, SPOS, 354.968
"SMAStrip (Nitinol)".21, SPOS, 342.269
"SMAStrip (Nitinol)".22, SPOS, 341.202
"SMAStrip (Nitinol)".23, SPOS, 349.687
"SMAStrip (Nitinol)".24, SPOS, 355.486
"SMAStrip (Nitinol)".25, SPOS, 253.312
"SMAStrip (Nitinol)".26, SPOS, 317.323
"SMAStrip (Nitinol)".27, SPOS, 244.527
"SMAStrip (Nitinol)".28, SPOS, 271.796
"SMAStrip (Nitinol)".29, SPOS, 327.328
"SMAStrip (Nitinol)".30, SPOS, 348.903
"SMAStrip (Nitinol)".31, SPOS, 352.432
"SMAStrip (Nitinol)".32, SPOS, 353.028
"SMAStrip (Nitinol)".33, SPOS, 355.421
"SMAStrip (Nitinol)".34, SPOS, 354.012
"SMAStrip (Nitinol)".35, SPOS, 352.661
"SMAStrip (Nitinol)".36, SPOS, 354.577
"SMAStrip (Nitinol)".37, SPOS, 354.028
"SMAStrip (Nitinol)".38, SPOS, 355.198
"SMAStrip (Nitinol)".39, SPOS, 282.162
"SMAStrip (Nitinol)".40, SPOS, 285.588
"SMAStrip (Nitinol)".41, SPOS, 301.591
"SMAStrip (Nitinol)".42, SPOS, 303.479
"SMAStrip (Nitinol)".43, SPOS, 291.485
"SMAStrip (Nitinol)".44, SPOS, 291.085
"SMAStrip (Nitinol)".45, SPOS, 309.735
"SMAStrip (Nitinol)".46, SPOS, 288.845
"SMAStrip (Nitinol)".47, SPOS, 325.243
"SMAStrip (Nitinol)".48, SPOS, 316.882
"SMAStrip (Nitinol)".49, SPOS, 319.912
"SMAStrip (Nitinol)".50, SPOS, 320.555
"SMAStrip (Nitinol)".51, SPOS, 326.707
"SMAStrip (Nitinol)".52, SPOS, 323.769
"SMAStrip (Nitinol)".53, SPOS, 324.229
"SMAStrip (Nitinol)".54, SPOS, 321.427
"SMAStrip (Nitinol)".55, SPOS, 321.859
"SMAStrip (Nitinol)".56, SPOS, 319.35
"SMAStrip (Nitinol)".57, SPOS, 316.438
"SMAStrip (Nitinol)".58, SPOS, 313.344
"SMAStrip (Nitinol)".59, SPOS, 312.256
"SMAStrip (Nitinol)".60, SPOS, 315.105
"SMAStrip (Nitinol)".61, SPOS, 312.137
"SMAStrip (Nitinol)".62, SPOS, 329.578
"SMAStrip (Nitinol)".63, SPOS, 330.059
"SMAStrip (Nitinol)".64, SPOS, 329.741
"SMAStrip (Nitinol)".65, SPOS, 328.906
"SMAStrip (Nitinol)".66, SPOS, 326.418
"SMAStrip (Nitinol)".67, SPOS, 323.226
"SMAStrip (Nitinol)".68, SPOS, 320.834
"SMAStrip (Nitinol)".69, SPOS, 320.335
"SMAStrip (Nitinol)".70, SPOS, 321.457
"SMAStrip (Nitinol)".71, SPOS, 321.509
"SMAStrip (Nitinol)".72, SPOS, 325.481
"SMAStrip (Nitinol)".73, SPOS, 326.704
"SMAStrip (Nitinol)".74, SPOS, 304.6
"SMAStrip (Nitinol)".75, SPOS, 320.017
"SMAStrip (Nitinol)".76, SPOS, 326.249
"SMAStrip (Nitinol)".77, SPOS, 321.914
"SMAStrip (Nitinol)".78, SPOS, 316.868
"SMAStrip (Nitinol)".79, SPOS, 332.337
"SMAStrip (Nitinol)".80, SPOS, 324.58
"SMAStrip (Nitinol)".81, SPOS, 327.183
"SMAStrip (Nitinol)".82, SPOS, 327.517
"SMAStrip (Nitinol)".83, SPOS, 327.545
"SMAStrip (Nitinol)".84, SPOS, 328.757
"SMAStrip (Nitinol)".85, SPOS, 328.815
"SMAStrip (Nitinol)".86, SPOS, 327.922
"SMAStrip (Nitinol)".87, SPOS, 327.191
"SMAStrip (Nitinol)".88, SPOS, 326.912
"SMAStrip (Nitinol)".89, SPOS, 326.221
"SMAStrip (Nitinol)".90, SPOS, 325.624
"SMAStrip (Nitinol)".91, SPOS, 327.562
"SMAStrip (Nitinol)".92, SPOS, 332.355
"SMAStrip (Nitinol)".93, SPOS, 332.148
"SMAStrip (Nitinol)".94, SPOS, 319.653
"SMAStrip (Nitinol)".95, SPOS, 327.388
"SMAStrip (Nitinol)".96, SPOS, 332.698
"SMAStrip (Nitinol)".97, SPOS, 337.878
"SMAStrip (Nitinol)".98, SPOS, 339.298
"SMAStrip (Nitinol)".99, SPOS, 340.73
"SMAStrip (Nitinol)".100, SPOS, 326.055
"SMAStrip (Nitinol)".101, SPOS, 310.841
"SMAStrip (Nitinol)".102, SPOS, 328.301
"SMAStrip (Nitinol)".103, SPOS, 321.611
"SMAStrip (Nitinol)".104, SPOS, 317.01
"SMAStrip (Nitinol)".105, SPOS, 317.746
"SMAStrip (Nitinol)".106, SPOS, 317.456
"SMAStrip (Nitinol)".107, SPOS, 318.201
"SMAStrip (Nitinol)".108, SPOS, 318.89
"SMAStrip (Nitinol)".109, SPOS, 320.64
"SMAStrip (Nitinol)".110, SPOS, 323.242
"SMAStrip (Nitinol)".111, SPOS, 325.057
"SMAStrip (Nitinol)".112, SPOS, 327.551
"SMAStrip (Nitinol)".113, SPOS, 327.936
"SMAStrip (Nitinol)".114, SPOS, 326.692
"SMAStrip (Nitinol)".115, SPOS, 323.412
"SMAStrip (Nitinol)".116, SPOS, 318.221
"SMAStrip (Nitinol)".117, SPOS, 322.334
"SMAStrip (Nitinol)".118, SPOS, 328.194
"SMAStrip (Nitinol)".119, SPOS, 333.411
"SMAStrip (Nitinol)".120, SPOS, 323.579
"SMAStrip (Nitinol)".121, SPOS, 319.078
"SMAStrip (Nitinol)".122, SPOS, 331.244
"SMAStrip (Nitinol)".123, SPOS, 324.28
"SMAStrip (Nitinol)".124, SPOS, 319.838
"SMAStrip (Nitinol)".125, SPOS, 320.788
"SMAStrip (Nitinol)".126, SPOS, 319.039
"SMAStrip (Nitinol)".127, SPOS, 319.021
"SMAStrip (Nitinol)".128, SPOS, 319.867
"SMAStrip (Nitinol)".129, SPOS, 322.247
"SMAStrip (Nitinol)".130, SPOS, 325.522
"SMAStrip (Nitinol)".131, SPOS, 328.667
"SMAStrip (Nitinol)".132, SPOS, 330.236
"SMAStrip (Nitinol)".133, SPOS, 329.104
"SMAStrip (Nitinol)".134, SPOS, 331.278
"SMAStrip (Nitinol)".135, SPOS, 316.009
"SMAStrip (Nitinol)".136, SPOS, 321.956
"SMAStrip (Nitinol)".137, SPOS, 332.837
"SMAStrip (Nitinol)".138, SPOS, 347.255
"SMAStrip (Nitinol)".139, SPOS, 351.666
"SMAStrip (Nitinol)".140, SPOS, 354.995
"SMAStrip (Nitinol)".141, SPOS, 353.525
"SMAStrip (Nitinol)".142, SPOS, 336.171
"SMAStrip (Nitinol)".143, SPOS, 297.854
"SMAStrip (Nitinol)".144, SPOS, 276.147
"SMAStrip (Nitinol)".145, SPOS, 270.948
"SMAStrip (Nitinol)".146, SPOS, 278.858
"SMAStrip (Nitinol)".147, SPOS, 297.721
"SMAStrip (Nitinol)".148, SPOS, 269.858
"SMAStrip (Nitinol)".149, SPOS, 277.157
"SMAStrip (Nitinol)".150, SPOS, 277.174
"SMAStrip (Nitinol)".151, SPOS, 275.7
"SMAStrip (Nitinol)".152, SPOS, 273.96
"SMAStrip (Nitinol)".153, SPOS, 270.901
"SMAStrip (Nitinol)".154, SPOS, 268.573
"SMAStrip (Nitinol)".155, SPOS, 265.743
"SMAStrip (Nitinol)".156, SPOS, 262.405
"SMAStrip (Nitinol)".157, SPOS, 259.538
"SMAStrip (Nitinol)".158, SPOS, 255.318
"SMAStrip (Nitinol)".159, SPOS, 285.735
"SMAStrip (Nitinol)".160, SPOS, 283.041
"SMAStrip (Nitinol)".161, SPOS, 281.751
"SMAStrip (Nitinol)".162, SPOS, 287.565
"SMAStrip (Nitinol)".163, SPOS, 292.22
"SMAStrip (Nitinol)".164, SPOS, 257.416
"SMAStrip (Nitinol)".165, SPOS, 275.734
"SMAStrip (Nitinol)".166, SPOS, 267.48
"SMAStrip (Nitinol)".167, SPOS, 264.112
"SMAStrip (Nitinol)".168, SPOS, 318.37
"SMAStrip (Nitinol)".169, SPOS, 287.684
"SMAStrip (Nitinol)".170, SPOS, 290.631
"SMAStrip (Nitinol)".171, SPOS, 282.705
"SMAStrip (Nitinol)".172, SPOS, 296.012
"SMAStrip (Nitinol)".173, SPOS, 280.225
"SMAStrip (Nitinol)".174, SPOS, 268.772
"SMAStrip (Nitinol)".175, SPOS, 255.174
"SMAStrip (Nitinol)".176, SPOS, 251.395
"SMAStrip (Nitinol)".177, SPOS, 271.94
"SMAStrip (Nitinol)".178, SPOS, 287.61
"SMAStrip (Nitinol)".179, SPOS, 267.136
"SMAStrip (Nitinol)".180, SPOS, 261.667
"SMAStrip (Nitinol)".181, SPOS, 269.008
"SMAStrip (Nitinol)".182, SPOS, 264.612
"SMAStrip (Nitinol)".183, SPOS, 255.254
"SMAStrip (Nitinol)".184, SPOS, 281.845
"SMAStrip (Nitinol)".185, SPOS, 267.977
"SMAStrip (Nitinol)".186, SPOS, 271.784
"SMAStrip (Nitinol)".187, SPOS, 261.616
"SMAStrip (Nitinol)".188, SPOS, 266.646
"SMAStrip (Nitinol)".189, SPOS, 255.908
"SMAStrip (Nitinol)".190, SPOS, 250.231
"SMAStrip (Nitinol)".191, SPOS, 307.75
"SMAStrip (Nitinol)".192, SPOS, 281.896
"SMAStrip (Nitinol)".193, SPOS, 310.993
"SMAStrip (Nitinol)".194, SPOS, 283.724
"SMAStrip (Nitinol)".195, SPOS, 298.563
"SMAStrip (Nitinol)".196, SPOS, 283.932
"SMAStrip (Nitinol)".197, SPOS, 269.386
"SMAStrip (Nitinol)".198, SPOS, 255.538
"SMAStrip (Nitinol)".199, SPOS, 261.707
"SMAStrip (Nitinol)".200, SPOS, 262.685
"SMAStrip (Nitinol)".201, SPOS, 273.206
"SMAStrip (Nitinol)".202, SPOS, 262.22
"SMAStrip (Nitinol)".203, SPOS, 280.863
"SMAStrip (Nitinol)".204, SPOS, 274.932
"SMAStrip (Nitinol)".205, SPOS, 272.2
"SMAStrip (Nitinol)".206, SPOS, 272.197
"SMAStrip (Nitinol)".207, SPOS, 274.531
"SMAStrip (Nitinol)".208, SPOS, 276.056
"SMAStrip (Nitinol)".209, SPOS, 275.382
"SMAStrip (Nitinol)".210, SPOS, 242.403
"SMAStrip (Nitinol)".211, SPOS, 278.43
"SMAStrip (Nitinol)".212, SPOS, 277.159
"SMAStrip (Nitinol)".213, SPOS, 280.388
"SMAStrip (Nitinol)".214, SPOS, 251.754
"SMAStrip (Nitinol)".215, SPOS, 288.034
"SMAStrip (Nitinol)".216, SPOS, 271.775
"SMAStrip (Nitinol)".217, SPOS, 275.729
"SMAStrip (Nitinol)".218, SPOS, 278.755
"SMAStrip (Nitinol)".219, SPOS, 308.468
"SMAStrip (Nitinol)".220, SPOS, 326.199
"SMAStrip (Nitinol)".221, SPOS, 324.815
"SMAStrip (Nitinol)".222, SPOS, 353.302
"SMAStrip (Nitinol)".223, SPOS, 349.601
"SMAStrip (Nitinol)".224, SPOS, 286.847
"SMAStrip (Nitinol)".225, SPOS, 278.641
"SMAStrip (Nitinol)".226, SPOS, 296.635
"SMAStrip (Nitinol)".227, SPOS, 293.746
"SMAStrip (Nitinol)".228, SPOS, 276.232
"SMAStrip (Nitinol)".229, SPOS, 299.264
"SMAStrip (Nitinol)".230, SPOS, 293.352
"SMAStrip (Nitinol)".231, SPOS, 292.006
"SMAStrip (Nitinol)".232, SPOS, 260.628
"SMAStrip (Nitinol)".233, SPOS, 259.907
"SMAStrip (Nitinol)".234, SPOS, 256.855
"SMAStrip (Nitinol)".235, SPOS, 252.818
"SMAStrip (Nitinol)".236, SPOS, 286.823
"SMAStrip (Nitinol)".237, SPOS, 290.433
"SMAStrip (Nitinol)".238, SPOS, 291.679
"SMAStrip (Nitinol)".239, SPOS, 263.402
"SMAStrip (Nitinol)".240, SPOS, 266.661
"SMAStrip (Nitinol)".241, SPOS, 296.532
"SMAStrip (Nitinol)".242, SPOS, 299.915
"SMAStrip (Nitinol)".243, SPOS, 272.499
"SMAStrip (Nitinol)".244, SPOS, 270.115
"SMAStrip (Nitinol)".245, SPOS, 249.923
"SMAStrip (Nitinol)".246, SPOS, 284.573
"SMAStrip (Nitinol)".247, SPOS, 248.014
"SMAStrip (Nitinol)".248, SPOS, 244.364
"SMAStrip (Nitinol)".249, SPOS, 246.49
"SMAStrip (Nitinol)".250, SPOS, 239.594
"SMAStrip (Nitinol)".251, SPOS, 271.958
"SMAStrip (Nitinol)".252, SPOS, 304.102
"SMAStrip (Nitinol)".253, SPOS, 305.384
"SMAStrip (Nitinol)".254, SPOS, 275.517
"SMAStrip (Nitinol)".255, SPOS, 273.234
"SMAStrip (Nitinol)".256, SPOS, 269.904
"SMAStrip (Nitinol)".257, SPOS, 300.091
"SMAStrip (Nitinol)".258, SPOS, 232.858
"SMAStrip (Nitinol)".259, SPOS, 303.791
"SMAStrip (Nitinol)".260, SPOS, 264.128
"SMAStrip (Nitinol)".261, SPOS, 268.337
"SMAStrip (Nitinol)".262, SPOS, 297.538
"SMAStrip (Nitinol)".263, SPOS, 229.957
"SMAStrip (Nitinol)".264, SPOS, 297.922
"SMAStrip (Nitinol)".265, SPOS, 288.036
"SMAStrip (Nitinol)".266, SPOS, 295.734
"SMAStrip (Nitinol)".267, SPOS, 219.054
"SMAStrip (Nitinol)".268, SPOS, 217.691
"SMAStrip (Nitinol)".269, SPOS, 216.101
"SMAStrip (Nitinol)".270, SPOS, 215.813
"SMAStrip (Nitinol)".271, SPOS, 217.098
"SMAStrip (Nitinol)".272, SPOS, 212.46
"SMAStrip (Nitinol)".273, SPOS, 212.714
"SMAStrip (Nitinol)".274, SPOS, 206.31
"SMAStrip (Nitinol)".275, SPOS, 238.522
"SMAStrip (Nitinol)".276, SPOS, 276.798
"SMAStrip (Nitinol)".277, SPOS, 276.547
"SMAStrip (Nitinol)".278, SPOS, 242.341
"SMAStrip (Nitinol)".279, SPOS, 222.283
"SMAStrip (Nitinol)".280, SPOS, 224.665
"SMAStrip (Nitinol)".281, SPOS, 257.176
"SMAStrip (Nitinol)".282, SPOS, 263.084
"SMAStrip (Nitinol)".283, SPOS, 259.321
"SMAStrip (Nitinol)".284, SPOS, 226.891
"SMAStrip (Nitinol)".285, SPOS, 227.878
"SMAStrip (Nitinol)".286, SPOS, 205.662
"SMAStrip (Nitinol)".287, SPOS, 231.565
"SMAStrip (Nitinol)".288, SPOS, 206.48
"SMAStrip (Nitinol)".289, SPOS, 234.577
"SMAStrip (Nitinol)".290, SPOS, 304.033
"SMAStrip (Nitinol)".291, SPOS, 306.812
"SMAStrip (Nitinol)".292, SPOS, 209.116
"SMAStrip (Nitinol)".293, SPOS, 230.388
"SMAStrip (Nitinol)".294, SPOS, 267.863
"SMAStrip (Nitinol)".295, SPOS, 303.771
"SMAStrip (Nitinol)".296, SPOS, 210.801
"SMAStrip (Nitinol)".297, SPOS, 228.831
"SMAStrip (Nitinol)".298, SPOS, 265.151
"SMAStrip (Nitinol)".299, SPOS, 304.294
"SMAStrip (Nitinol)".300, SPOS, 212.631
"SMAStrip (Nitinol)".301, SPOS, 226.567
"SMAStrip (Nitinol)".302, SPOS, 260.741
"SMAStrip (Nitinol)".303, SPOS, 300.521
"SMAStrip (Nitinol)".304, SPOS, 301.419
"SMAStrip (Nitinol)".305, SPOS, 265.309
"SMAStrip (Nitinol)".306, SPOS, 226.89
"SMAStrip (Nitinol)".307, SPOS, 202.638
"SMAStrip (Nitinol)".308, SPOS, 226.423
"SMAStrip (Nitinol)".309, SPOS, 266.185
"SMAStrip (Nitinol)".310, SPOS, 303.835
"SMAStrip (Nitinol)".311, SPOS, 302.57
"SMAStrip (Nitinol)".312, SPOS, 263.502
"SMAStrip (Nitinol)".313, SPOS, 201.719
"SMAStrip (Nitinol)".314, SPOS, 206.266
"SMAStrip (Nitinol)".315, SPOS, 199.918
"SMAStrip (Nitinol)".316, SPOS, 292.037
"SMAStrip (Nitinol)".317, SPOS, 303.745
"SMAStrip (Nitinol)".318, SPOS, 259.873
"SMAStrip (Nitinol)".319, SPOS, 225.864
"SMAStrip (Nitinol)".320, SPOS, 208.072
"SMAStrip (Nitinol)".321, SPOS, 207.551
"SMAStrip (Nitinol)".322, SPOS, 223.857
"SMAStrip (Nitinol)".323, SPOS, 256.911
"SMAStrip (Nitinol)".324, SPOS, 204.119
"SMAStrip (Nitinol)".325, SPOS, 266.443
"SMAStrip (Nitinol)".326, SPOS, 306.283
"SMAStrip (Nitinol)".327, SPOS, 305.497
"SMAStrip (Nitinol)".328, SPOS, 203.589
"SMAStrip (Nitinol)".329, SPOS, 264.093
"SMAStrip (Nitinol)".330, SPOS, 306.057
"SMAStrip (Nitinol)".331, SPOS, 309.716
"SMAStrip (Nitinol)".332, SPOS, 268.854
"SMAStrip (Nitinol)".333, SPOS, 234.
"SMAStrip (Nitinol)".334, SPOS, 205.3
"SMAStrip (Nitinol)".335, SPOS, 209.119
"SMAStrip (Nitinol)".336, SPOS, 212.617
"SMAStrip (Nitinol)".337, SPOS, 214.05
"SMAStrip (Nitinol)".338, SPOS, 256.098
"SMAStrip (Nitinol)".339, SPOS, 277.277
"SMAStrip (Nitinol)".340, SPOS, 301.663
"SMAStrip (Nitinol)".341, SPOS, 286.13
"SMAStrip (Nitinol)".342, SPOS, 246.427
"SMAStrip (Nitinol)".343, SPOS, 214.732
"SMAStrip (Nitinol)".344, SPOS, 206.9
"SMAStrip (Nitinol)".345, SPOS, 263.577
"SMAStrip (Nitinol)".346, SPOS, 292.313
"SMAStrip (Nitinol)".347, SPOS, 301.197
"SMAStrip (Nitinol)".348, SPOS, 301.684
"SMAStrip (Nitinol)".349, SPOS, 261.735
"SMAStrip (Nitinol)".350, SPOS, 226.246
"SMAStrip (Nitinol)".351, SPOS, 225.228
"SMAStrip (Nitinol)".352, SPOS, 225.271
"SMAStrip (Nitinol)".353, SPOS, 204.192
"SMAStrip (Nitinol)".354, SPOS, 261.855
"SMAStrip (Nitinol)".355, SPOS, 263.419
"SMAStrip (Nitinol)".356, SPOS, 255.316
"SMAStrip (Nitinol)".357, SPOS, 301.47
"SMAStrip (Nitinol)".358, SPOS, 216.376
"SMAStrip (Nitinol)".359, SPOS, 248.597
"SMAStrip (Nitinol)".360, SPOS, 282.449
"SMAStrip (Nitinol)".361, SPOS, 290.634
"SMAStrip (Nitinol)".362, SPOS, 281.252
"SMAStrip (Nitinol)".363, SPOS, 246.606
"SMAStrip (Nitinol)".364, SPOS, 220.433
"SMAStrip (Nitinol)".365, SPOS, 221.243
"SMAStrip (Nitinol)".366, SPOS, 219.712
"SMAStrip (Nitinol)".367, SPOS, 225.624
"SMAStrip (Nitinol)".368, SPOS, 254.688
"SMAStrip (Nitinol)".369, SPOS, 295.503
"SMAStrip (Nitinol)".370, SPOS, 291.484
"SMAStrip (Nitinol)".371, SPOS, 291.475
"SMAStrip (Nitinol)".372, SPOS, 252.259
"SMAStrip (Nitinol)".373, SPOS, 216.329
"SMAStrip (Nitinol)".374, SPOS, 214.408
"SMAStrip (Nitinol)".375, SPOS, 279.805
"SMAStrip (Nitinol)".376, SPOS, 282.065
"SMAStrip (Nitinol)".377, SPOS, 245.223
"SMAStrip (Nitinol)".378, SPOS, 218.077
"SMAStrip (Nitinol)".379, SPOS, 244.396
"SMAStrip (Nitinol)".380, SPOS, 224.752
"SMAStrip (Nitinol)".381, SPOS, 258.01
"SMAStrip (Nitinol)".382, SPOS, 300.118
"SMAStrip (Nitinol)".383, SPOS, 224.552
"SMAStrip (Nitinol)".384, SPOS, 259.863
"SMAStrip (Nitinol)".385, SPOS, 296.502
"SMAStrip (Nitinol)".386, SPOS, 317.47
"SMAStrip (Nitinol)".387, SPOS, 228.971
"SMAStrip (Nitinol)".388, SPOS, 239.423
"SMAStrip (Nitinol)".389, SPOS, 268.651
"SMAStrip (Nitinol)".390, SPOS, 251.275
"SMAStrip (Nitinol)".391, SPOS, 284.793
"SMAStrip (Nitinol)".392, SPOS, 244.747
"SMAStrip (Nitinol)".393, SPOS, 296.109
"SMAStrip (Nitinol)".394, SPOS, 314.59
"SMAStrip (Nitinol)".395, SPOS, 272.445
"SMAStrip (Nitinol)".396, SPOS, 263.1
"SMAStrip (Nitinol)".397, SPOS, 260.367
"SMAStrip (Nitinol)".398, SPOS, 260.72
"SMAStrip (Nitinol)".399, SPOS, 225.436
"SMAStrip (Nitinol)".400, SPOS, 227.583
"SMAStrip (Nitinol)".401, SPOS, 298.709
"SMAStrip (Nitinol)".402, SPOS, 253.089
"SMAStrip (Nitinol)".403, SPOS, 254.353
"SMAStrip (Nitinol)".404, SPOS, 290.013
"SMAStrip (Nitinol)".405, SPOS, 290.79
"SMAStrip (Nitinol)".406, SPOS, 255.665
"SMAStrip (Nitinol)".407, SPOS, 257.305
"SMAStrip (Nitinol)".408, SPOS, 263.76
"SMAStrip (Nitinol)".409, SPOS, 266.844
"SMAStrip (Nitinol)".410, SPOS, 295.813
"SMAStrip (Nitinol)".411, SPOS, 292.725
"SMAStrip (Nitinol)".412, SPOS, 254.084
"SMAStrip (Nitinol)".413, SPOS, 252.131
"SMAStrip (Nitinol)".414, SPOS, 264.747
"SMAStrip (Nitinol)".415, SPOS, 299.108
"SMAStrip (Nitinol)".416, SPOS, 271.324
"SMAStrip (Nitinol)".417, SPOS, 300.061
"SMAStrip (Nitinol)".418, SPOS, 280.755
"SMAStrip (Nitinol)".419, SPOS, 301.391
"SMAStrip (Nitinol)".420, SPOS, 302.052
"SMAStrip (Nitinol)".421, SPOS, 274.719
"SMAStrip (Nitinol)".422, SPOS, 305.891
"SMAStrip (Nitinol)".423, SPOS, 301.216
"SMAStrip (Nitinol)".424, SPOS, 282.429
"SMAStrip (Nitinol)".425, SPOS, 300.263
"SMAStrip (Nitinol)".426, SPOS, 277.85
"SMAStrip (Nitinol)".427, SPOS, 281.763
"SMAStrip (Nitinol)".428, SPOS, 315.216
"SMAStrip (Nitinol)".429, SPOS, 297.092
"SMAStrip (Nitinol)".430, SPOS, 327.143
"SMAStrip (Nitinol)".431, SPOS, 284.003
"SMAStrip (Nitinol)".432, SPOS, 307.765
"SMAStrip (Nitinol)".433, SPOS, 310.677
"SMAStrip (Nitinol)".434, SPOS, 289.003
"SMAStrip (Nitinol)".435, SPOS, 267.527
"SMAStrip (Nitinol)".436, SPOS, 267.887
"SMAStrip (Nitinol)".437, SPOS, 247.698
"SMAStrip (Nitinol)".438, SPOS, 263.205
"SMAStrip (Nitinol)".439, SPOS, 293.162
"SMAStrip (Nitinol)".440, SPOS, 245.252
"SMAStrip (Nitinol)".441, SPOS, 251.46
"SMAStrip (Nitinol)".442, SPOS, 243.506
"SMAStrip (Nitinol)".443, SPOS, 241.597
"SMAStrip (Nitinol)".444, SPOS, 239.734
"SMAStrip (Nitinol)".445, SPOS, 237.554
"SMAStrip (Nitinol)".446, SPOS, 234.491
"SMAStrip (Nitinol)".447, SPOS, 231.782
"SMAStrip (Nitinol)".448, SPOS, 228.666
"SMAStrip (Nitinol)".449, SPOS, 253.167
"SMAStrip (Nitinol)".450, SPOS, 225.212
"SMAStrip (Nitinol)".451, SPOS, 251.207
"SMAStrip (Nitinol)".452, SPOS, 225.807
"SMAStrip (Nitinol)".453, SPOS, 222.508
"SMAStrip (Nitinol)".454, SPOS, 220.964
"SMAStrip (Nitinol)".455, SPOS, 237.363
"SMAStrip (Nitinol)".456, SPOS, 214.456
"SMAStrip (Nitinol)".457, SPOS, 209.039
"SMAStrip (Nitinol)".458, SPOS, 210.706
"SMAStrip (Nitinol)".459, SPOS, 214.732
"SMAStrip (Nitinol)".460, SPOS, 257.439
"SMAStrip (Nitinol)".461, SPOS, 245.521
"SMAStrip (Nitinol)".462, SPOS, 239.219
"SMAStrip (Nitinol)".463, SPOS, 233.322
"SMAStrip (Nitinol)".464, SPOS, 217.146
"SMAStrip (Nitinol)".465, SPOS, 214.85
"SMAStrip (Nitinol)".466, SPOS, 219.086
"SMAStrip (Nitinol)".467, SPOS, 253.846
"SMAStrip (Nitinol)".468, SPOS, 209.345
"SMAStrip (Nitinol)".469, SPOS, 241.474
"SMAStrip (Nitinol)".470, SPOS, 206.852
"SMAStrip (Nitinol)".471, SPOS, 234.373
"SMAStrip (Nitinol)".472, SPOS, 228.642
"SMAStrip (Nitinol)".473, SPOS, 210.627
"SMAStrip (Nitinol)".474, SPOS, 208.236
"SMAStrip (Nitinol)".475, SPOS, 205.879
"SMAStrip (Nitinol)".476, SPOS, 236.694
"SMAStrip (Nitinol)".477, SPOS, 243.89
"SMAStrip (Nitinol)".478, SPOS, 234.296
"SMAStrip (Nitinol)".479, SPOS, 207.473
"SMAStrip (Nitinol)".480, SPOS, 227.79
"SMAStrip (Nitinol)".481, SPOS, 229.941
"SMAStrip (Nitinol)".482, SPOS, 207.531
"SMAStrip (Nitinol)".483, SPOS, 204.501
"SMAStrip (Nitinol)".484, SPOS, 210.137
"SMAStrip (Nitinol)".485, SPOS, 228.533
"SMAStrip (Nitinol)".486, SPOS, 204.015
"SMAStrip (Nitinol)".487, SPOS, 207.295
"SMAStrip (Nitinol)".488, SPOS, 212.113
"SMAStrip (Nitinol)".489, SPOS, 234.262
"SMAStrip (Nitinol)".490, SPOS, 233.221
"SMAStrip (Nitinol)".491, SPOS, 237.336
"SMAStrip (Nitinol)".492, SPOS, 237.364
"SMAStrip (Nitinol)".493, SPOS, 206.549
"SMAStrip (Nitinol)".494, SPOS, 205.55
"SMAStrip (Nitinol)".495, SPOS, 233.54
"SMAStrip (Nitinol)".496, SPOS, 229.353
"SMAStrip (Nitinol)".497, SPOS, 203.105
"SMAStrip (Nitinol)".498, SPOS, 205.021
"SMAStrip (Nitinol)".499, SPOS, 231.807
"SMAStrip (Nitinol)".500, SPOS, 222.603
"SMAStrip (Nitinol)".501, SPOS, 215.047
"SMAStrip (Nitinol)".502, SPOS, 215.157
"SMAStrip (Nitinol)".503, SPOS, 219.285
"SMAStrip (Nitinol)".504, SPOS, 219.094
"SMAStrip (Nitinol)".505, SPOS, 259.144
"SMAStrip (Nitinol)".506, SPOS, 251.593
"SMAStrip (Nitinol)".507, SPOS, 233.928
"SMAStrip (Nitinol)".508, SPOS, 224.493
"SMAStrip (Nitinol)".509, SPOS, 210.936
"SMAStrip (Nitinol)".510, SPOS, 226.885
"SMAStrip (Nitinol)".511, SPOS, 229.857
"SMAStrip (Nitinol)".512, SPOS, 207.711
"SMAStrip (Nitinol)".513, SPOS, 209.951
"SMAStrip (Nitinol)".514, SPOS, 217.853
"SMAStrip (Nitinol)".515, SPOS, 246.616
"SMAStrip (Nitinol)".516, SPOS, 220.525
"SMAStrip (Nitinol)".517, SPOS, 238.191
"SMAStrip (Nitinol)".518, SPOS, 217.943
"SMAStrip (Nitinol)".519, SPOS, 234.831
"SMAStrip (Nitinol)".520, SPOS, 236.144
"SMAStrip (Nitinol)".521, SPOS, 232.182
"SMAStrip (Nitinol)".522, SPOS, 242.305
"SMAStrip (Nitinol)".523, SPOS, 219.817
"SMAStrip (Nitinol)".524, SPOS, 214.087
"SMAStrip (Nitinol)".525, SPOS, 214.735
"SMAStrip (Nitinol)".526, SPOS, 219.27
"SMAStrip (Nitinol)".527, SPOS, 235.217
"SMAStrip (Nitinol)".528, SPOS, 237.176
"SMAStrip (Nitinol)".529, SPOS, 238.976
"SMAStrip (Nitinol)".530, SPOS, 240.825
"SMAStrip (Nitinol)".531, SPOS, 243.787
"SMAStrip (Nitinol)".532, SPOS, 247.336
"SMAStrip (Nitinol)".533, SPOS, 249.508
"SMAStrip (Nitinol)".534, SPOS, 245.399
"SMAStrip (Nitinol)".535, SPOS, 284.918
"SMAStrip (Nitinol)".536, SPOS, 287.918
"SMAStrip (Nitinol)".537, SPOS, 262.132
"SMAStrip (Nitinol)".538, SPOS, 266.089
"SMAStrip (Nitinol)".539, SPOS, 268.846
"SMAStrip (Nitinol)".540, SPOS, 288.064
"SMAStrip (Nitinol)".541, SPOS, 283.867
"SMAStrip (Nitinol)".542, SPOS, 321.024
"SMAStrip (Nitinol)".543, SPOS, 338.852
"SMAStrip (Nitinol)".544, SPOS, 347.983
"SMAStrip (Nitinol)".545, SPOS, 350.441
"SMAStrip (Nitinol)".546, SPOS, 338.159
"SMAStrip (Nitinol)".547, SPOS, 316.532
"SMAStrip (Nitinol)".548, SPOS, 342.343
"SMAStrip (Nitinol)".549, SPOS, 354.781
"SMAStrip (Nitinol)".550, SPOS, 351.051
"SMAStrip (Nitinol)".551, SPOS, 332.803
"SMAStrip (Nitinol)".552, SPOS, 322.181
"SMAStrip (Nitinol)".553, SPOS, 346.992
"SMAStrip (Nitinol)".554, SPOS, 354.416
"SMAStrip (Nitinol)".555, SPOS, 351.516
"SMAStrip (Nitinol)".556, SPOS, 337.143
"SMAStrip (Nitinol)".557, SPOS, 338.364
"SMAStrip (Nitinol)".558, SPOS, 342.59
"SMAStrip (Nitinol)".559, SPOS, 341.893
"SMAStrip (Nitinol)".560, SPOS, 330.682
"SMAStrip (Nitinol)".561, SPOS, 316.505
"SMAStrip (Nitinol)".562, SPOS, 321.378
"SMAStrip (Nitinol)".563, SPOS, 349.305
"SMAStrip (Nitinol)".564, SPOS, 336.449
"SMAStrip (Nitinol)".565, SPOS, 344.158
"SMAStrip (Nitinol)".566, SPOS, 348.212
"SMAStrip (Nitinol)".567, SPOS, 349.823
"SMAStrip (Nitinol)".568, SPOS, 348.569
"SMAStrip (Nitinol)".569, SPOS, 348.491
"SMAStrip (Nitinol)".570, SPOS, 349.671
"SMAStrip (Nitinol)".571, SPOS, 351.501
"SMAStrip (Nitinol)".572, SPOS, 349.099
"SMAStrip (Nitinol)".573, SPOS, 331.862
"SMAStrip (Nitinol)".574, SPOS, 353.187
"SMAStrip (Nitinol)".575, SPOS, 349.565
"SMAStrip (Nitinol)".576, SPOS, 349.668
"SMAStrip (Nitinol)".577, SPOS, 349.77
"SMAStrip (Nitinol)".578, SPOS, 353.003
"SMAStrip (Nitinol)".579, SPOS, 349.806
"SMAStrip (Nitinol)".580, SPOS, 348.555
"SMAStrip (Nitinol)".581, SPOS, 350.888
"SMAStrip (Nitinol)".582, SPOS, 354.201
"SMAStrip (Nitinol)".583, SPOS, 345.467
"SMAStrip (Nitinol)".584, SPOS, 347.954
"SMAStrip (Nitinol)".585, SPOS, 348.646
"SMAStrip (Nitinol)".586, SPOS, 348.356
"SMAStrip (Nitinol)".587, SPOS, 350.505
"SMAStrip (Nitinol)".588, SPOS, 349.264
"SMAStrip (Nitinol)".589, SPOS, 353.219
"SMAStrip (Nitinol)".590, SPOS, 351.648
"SMAStrip (Nitinol)".591, SPOS, 351.899
"SMAStrip (Nitinol)".592, SPOS, 350.172
"SMAStrip (Nitinol)".593, SPOS, 354.273
"SMAStrip (Nitinol)".594, SPOS, 334.705
"SMAStrip (Nitinol)".595, SPOS, 343.982
"SMAStrip (Nitinol)".596, SPOS, 344.072
"SMAStrip (Nitinol)".597, SPOS, 345.5
"SMAStrip (Nitinol)".598, SPOS, 350.174
"SMAStrip (Nitinol)".599, SPOS, 350.454
"SMAStrip (Nitinol)".600, SPOS, 352.755
"SMAStrip (Nitinol)".601, SPOS, 344.369
"SMAStrip (Nitinol)".602, SPOS, 347.58
"SMAStrip (Nitinol)".603, SPOS, 351.04
"SMAStrip (Nitinol)".604, SPOS, 349.618
"SMAStrip (Nitinol)".605, SPOS, 350.635
"SMAStrip (Nitinol)".606, SPOS, 349.661
"SMAStrip (Nitinol)".607, SPOS, 351.812
"SMAStrip (Nitinol)".608, SPOS, 348.514
"SMAStrip (Nitinol)".609, SPOS, 348.418
"SMAStrip (Nitinol)".610, SPOS, 346.202
"SMAStrip (Nitinol)".611, SPOS, 352.035
"SMAStrip (Nitinol)".612, SPOS, 353.005
"SMAStrip (Nitinol)".613, SPOS, 348.244
"SMAStrip (Nitinol)".614, SPOS, 346.876
"SMAStrip (Nitinol)".615, SPOS, 352.975
"SMAStrip (Nitinol)".616, SPOS, 351.888
"SMAStrip (Nitinol)".617, SPOS, 350.249
"SMAStrip (Nitinol)".618, SPOS, 354.577
"SMAStrip (Nitinol)".619, SPOS, 353.642
"SMAStrip (Nitinol)".620, SPOS, 350.654
"SMAStrip (Nitinol)".621, SPOS, 347.027
"SMAStrip (Nitinol)".622, SPOS, 352.239
"SMAStrip (Nitinol)".623, SPOS, 350.789
"SMAStrip (Nitinol)".624, SPOS, 348.869
"SMAStrip (Nitinol)".625, SPOS, 348.306
"SMAStrip (Nitinol)".626, SPOS, 348.266
"SMAStrip (Nitinol)".627, SPOS, 337.37
"SMAStrip (Nitinol)".628, SPOS, 343.337
"SMAStrip (Nitinol)".629, SPOS, 346.296
"SMAStrip (Nitinol)".630, SPOS, 348.138
"SMAStrip (Nitinol)".631, SPOS, 352.188
"SMAStrip (Nitinol)".632, SPOS, 347.165
"SMAStrip (Nitinol)".633, SPOS, 351.958
"SMAStrip (Nitinol)".634, SPOS, 350.926
"SMAStrip (Nitinol)".635, SPOS, 347.101
"SMAStrip (Nitinol)".636, SPOS, 351.668
"SMAStrip (Nitinol)".637, SPOS, 353.024
"SMAStrip (Nitinol)".638, SPOS, 355.549
"SMAStrip (Nitinol)".639, SPOS, 353.714
"SMAStrip (Nitinol)".640, SPOS, 351.659
"SMAStrip (Nitinol)".641, SPOS, 349.408
"SMAStrip (Nitinol)".642, SPOS, 352.932
"SMAStrip (Nitinol)".643, SPOS, 349.092
"SMAStrip (Nitinol)".644, SPOS, 339.301
"SMAStrip (Nitinol)".645, SPOS, 338.333
"SMAStrip (Nitinol)".646, SPOS, 341.678
"SMAStrip (Nitinol)".647, SPOS, 352.112
"SMAStrip (Nitinol)".648, SPOS, 325.185
"SMAStrip (Nitinol)".649, SPOS, 294.061
"SMAStrip (Nitinol)".650, SPOS, 323.863
"SMAStrip (Nitinol)".651, SPOS, 338.067
"SMAStrip (Nitinol)".652, SPOS, 313.754
"SMAStrip (Nitinol)".653, SPOS, 327.326
"SMAStrip (Nitinol)".654, SPOS, 333.535
"SMAStrip (Nitinol)".655, SPOS, 312.797
"SMAStrip (Nitinol)".656, SPOS, 335.472
"SMAStrip (Nitinol)".657, SPOS, 313.802
"SMAStrip (Nitinol)".658, SPOS, 289.533
"SMAStrip (Nitinol)".659, SPOS, 332.71
"SMAStrip (Nitinol)".660, SPOS, 314.756
"SMAStrip (Nitinol)".661, SPOS, 349.234
"SMAStrip (Nitinol)".662, SPOS, 335.67
"SMAStrip (Nitinol)".663, SPOS, 313.544
"SMAStrip (Nitinol)".664, SPOS, 335.364
"SMAStrip (Nitinol)".665, SPOS, 314.923
"SMAStrip (Nitinol)".666, SPOS, 287.611
"SMAStrip (Nitinol)".667, SPOS, 336.377
"SMAStrip (Nitinol)".668, SPOS, 314.725
"SMAStrip (Nitinol)".669, SPOS, 259.318
"SMAStrip (Nitinol)".670, SPOS, 311.175
"SMAStrip (Nitinol)".671, SPOS, 256.726
"SMAStrip (Nitinol)".672, SPOS, 332.906
"SMAStrip (Nitinol)".673, SPOS, 309.722
"SMAStrip (Nitinol)".674, SPOS, 254.194
"SMAStrip (Nitinol)".675, SPOS, 352.731
"SMAStrip (Nitinol)".676, SPOS, 309.761
"SMAStrip (Nitinol)".677, SPOS, 281.19
"SMAStrip (Nitinol)".678, SPOS, 345.09
"SMAStrip (Nitinol)".679, SPOS, 330.51
"SMAStrip (Nitinol)".680, SPOS, 281.681
"SMAStrip (Nitinol)".681, SPOS, 335.827
"SMAStrip (Nitinol)".682, SPOS, 309.32
"SMAStrip (Nitinol)".683, SPOS, 311.192
"SMAStrip (Nitinol)".684, SPOS, 344.487
"SMAStrip (Nitinol)".685, SPOS, 335.587
"SMAStrip (Nitinol)".686, SPOS, 310.954
"SMAStrip (Nitinol)".687, SPOS, 310.337
"SMAStrip (Nitinol)".688, SPOS, 334.858
"SMAStrip (Nitinol)".689, SPOS, 312.007
"SMAStrip (Nitinol)".690, SPOS, 334.493
"SMAStrip (Nitinol)".691, SPOS, 310.296
"SMAStrip (Nitinol)".692, SPOS, 335.255
"SMAStrip (Nitinol)".693, SPOS, 311.341
"SMAStrip (Nitinol)".694, SPOS, 335.088
"SMAStrip (Nitinol)".695, SPOS, 307.269
"SMAStrip (Nitinol)".696, SPOS, 336.163
"SMAStrip (Nitinol)".697, SPOS, 312.355
"SMAStrip (Nitinol)".698, SPOS, 339.28
"SMAStrip (Nitinol)".699, SPOS, 313.976
"SMAStrip (Nitinol)".700, SPOS, 350.553
"SMAStrip (Nitinol)".701, SPOS, 340.117
"SMAStrip (Nitinol)".702, SPOS, 317.627
"SMAStrip (Nitinol)".703, SPOS, 329.712
"SMAStrip (Nitinol)".704, SPOS, 304.077
"SMAStrip (Nitinol)".705, SPOS, 352.587
"SMAStrip (Nitinol)".706, SPOS, 334.077
"SMAStrip (Nitinol)".707, SPOS, 325.327
"SMAStrip (Nitinol)".708, SPOS, 294.943
"SMAStrip (Nitinol)".709, SPOS, 324.345
"SMAStrip (Nitinol)".710, SPOS, 343.061
"SMAStrip (Nitinol)".711, SPOS, 338.515
"SMAStrip (Nitinol)".712, SPOS, 296.511
"SMAStrip (Nitinol)".713, SPOS, 284.767
"SMAStrip (Nitinol)".714, SPOS, 336.998
"SMAStrip (Nitinol)".715, SPOS, 321.869
"SMAStrip (Nitinol)".716, SPOS, 269.996
"SMAStrip (Nitinol)".717, SPOS, 314.349
"SMAStrip (Nitinol)".718, SPOS, 290.267
"SMAStrip (Nitinol)".719, SPOS, 299.385
"SMAStrip (Nitinol)".720, SPOS, 331.564
"SMAStrip (Nitinol)".721, SPOS, 292.93
"SMAStrip (Nitinol)".722, SPOS, 340.802
"SMAStrip (Nitinol)".723, SPOS, 291.907
"SMAStrip (Nitinol)".724, SPOS, 278.601
"SMAStrip (Nitinol)".725, SPOS, 347.363
"SMAStrip (Nitinol)".726, SPOS, 347.666
"SMAStrip (Nitinol)".727, SPOS, 312.79
"SMAStrip (Nitinol)".728, SPOS, 344.741
"SMAStrip (Nitinol)".729, SPOS, 324.566
"SMAStrip (Nitinol)".730, SPOS, 341.776
"SMAStrip (Nitinol)".731, SPOS, 335.564
"SMAStrip (Nitinol)".732, SPOS, 337.619
"SMAStrip (Nitinol)".733, SPOS, 331.126
"SMAStrip (Nitinol)".734, SPOS, 315.485
"SMAStrip (Nitinol)".735, SPOS, 326.792
"SMAStrip (Nitinol)".736, SPOS, 323.888
"SMAStrip (Nitinol)".737, SPOS, 345.232
"SMAStrip (Nitinol)".738, SPOS, 338.602
"SMAStrip (Nitinol)".739, SPOS, 320.897
"SMAStrip (Nitinol)".740, SPOS, 277.361
"SMAStrip (Nitinol)".741, SPOS, 330.174
"SMAStrip (Nitinol)".742, SPOS, 310.57
"SMAStrip (Nitinol)".743, SPOS, 293.3
"SMAStrip (Nitinol)".744, SPOS, 333.376
"SMAStrip (Nitinol)".745, SPOS, 294.417
"SMAStrip (Nitinol)".746, SPOS, 334.582
"SMAStrip (Nitinol)".747, SPOS, 310.865
"SMAStrip (Nitinol)".748, SPOS, 336.022
"SMAStrip (Nitinol)".749, SPOS, 302.663
"SMAStrip (Nitinol)".750, SPOS, 271.372
"SMAStrip (Nitinol)".751, SPOS, 337.72
"SMAStrip (Nitinol)".752, SPOS, 315.866
"SMAStrip (Nitinol)".753, SPOS, 340.662
"SMAStrip (Nitinol)".754, SPOS, 320.007
"SMAStrip (Nitinol)".755, SPOS, 328.783
"SMAStrip (Nitinol)".756, SPOS, 324.569
"SMAStrip (Nitinol)".757, SPOS, 333.557
"SMAStrip (Nitinol)".758, SPOS, 301.692
"SMAStrip (Nitinol)".759, SPOS, 290.951
"SMAStrip (Nitinol)".760, SPOS, 339.362
"SMAStrip (Nitinol)".761, SPOS, 309.372
"SMAStrip (Nitinol)".762, SPOS, 339.24
"SMAStrip (Nitinol)".763, SPOS, 322.376
"SMAStrip (Nitinol)".764, SPOS, 266.661
"SMAStrip (Nitinol)".765, SPOS, 340.979
"SMAStrip (Nitinol)".766, SPOS, 323.629
"SMAStrip (Nitinol)".767, SPOS, 342.546
"SMAStrip (Nitinol)".768, SPOS, 327.853
"SMAStrip (Nitinol)".769, SPOS, 297.932
"SMAStrip (Nitinol)".770, SPOS, 333.002
"SMAStrip (Nitinol)".771, SPOS, 315.31
"SMAStrip (Nitinol)".772, SPOS, 306.064
"SMAStrip (Nitinol)".773, SPOS, 330.338
"SMAStrip (Nitinol)".774, SPOS, 283.778
"SMAStrip (Nitinol)".775, SPOS, 338.96
"SMAStrip (Nitinol)".776, SPOS, 305.364
"SMAStrip (Nitinol)".777, SPOS, 303.165
"SMAStrip (Nitinol)".778, SPOS, 345.859
"SMAStrip (Nitinol)".779, SPOS, 311.082
"SMAStrip (Nitinol)".780, SPOS, 343.323
"SMAStrip (Nitinol)".781, SPOS, 320.855
"SMAStrip (Nitinol)".782, SPOS, 297.41
"SMAStrip (Nitinol)".783, SPOS, 343.244
"SMAStrip (Nitinol)".784, SPOS, 334.56
"SMAStrip (Nitinol)".785, SPOS, 347.614
"SMAStrip (Nitinol)".786, SPOS, 331.01
"SMAStrip (Nitinol)".787, SPOS, 343.173
"SMAStrip (Nitinol)".788, SPOS, 335.887
"SMAStrip (Nitinol)".789, SPOS, 315.362
"SMAStrip (Nitinol)".790, SPOS, 337.954
"SMAStrip (Nitinol)".791, SPOS, 327.297
"SMAStrip (Nitinol)".792, SPOS, 317.42
"SMAStrip (Nitinol)".793, SPOS, 330.92
"SMAStrip (Nitinol)".794, SPOS, 342.327
"SMAStrip (Nitinol)".795, SPOS, 309.374
"SMAStrip (Nitinol)".796, SPOS, 276.53
"SMAStrip (Nitinol)".797, SPOS, 347.497
"SMAStrip (Nitinol)".798, SPOS, 336.752
"SMAStrip (Nitinol)".799, SPOS, 320.36
"SMAStrip (Nitinol)".800, SPOS, 294.073
"SMAStrip (Nitinol)".801, SPOS, 332.55
"SMAStrip (Nitinol)".802, SPOS, 313.852
"SMAStrip (Nitinol)".803, SPOS, 341.314
"SMAStrip (Nitinol)".804, SPOS, 300.205
"SMAStrip (Nitinol)".805, SPOS, 270.507
"SMAStrip (Nitinol)".806, SPOS, 340.484
"SMAStrip (Nitinol)".807, SPOS, 326.931
"SMAStrip (Nitinol)".808, SPOS, 296.624
"SMAStrip (Nitinol)".809, SPOS, 337.838
"SMAStrip (Nitinol)".810, SPOS, 323.506
"SMAStrip (Nitinol)".811, SPOS, 337.351
"SMAStrip (Nitinol)".812, SPOS, 319.843
"SMAStrip (Nitinol)".813, SPOS, 283.36
"SMAStrip (Nitinol)".814, SPOS, 347.941
"SMAStrip (Nitinol)".815, SPOS, 318.245
"SMAStrip (Nitinol)".816, SPOS, 334.819
"SMAStrip (Nitinol)".817, SPOS, 316.471
"SMAStrip (Nitinol)".818, SPOS, 318.151
"SMAStrip (Nitinol)".819, SPOS, 316.512
"SMAStrip (Nitinol)".820, SPOS, 336.134
"SMAStrip (Nitinol)".821, SPOS, 321.304
"SMAStrip (Nitinol)".822, SPOS, 317.208
"SMAStrip (Nitinol)".823, SPOS, 316.558
"SMAStrip (Nitinol)".824, SPOS, 348.372
"SMAStrip (Nitinol)".825, SPOS, 325.646
"SMAStrip (Nitinol)".826, SPOS, 297.827
"SMAStrip (Nitinol)".827, SPOS, 294.549
"SMAStrip (Nitinol)".828, SPOS, 339.853
"SMAStrip (Nitinol)".829, SPOS, 329.677
"SMAStrip (Nitinol)".830, SPOS, 299.919
"SMAStrip (Nitinol)".831, SPOS, 330.726
"SMAStrip (Nitinol)".832, SPOS, 302.643
"SMAStrip (Nitinol)".833, SPOS, 333.439
"SMAStrip (Nitinol)".834, SPOS, 307.448
"SMAStrip (Nitinol)".835, SPOS, 333.1
"SMAStrip (Nitinol)".836, SPOS, 343.155
"SMAStrip (Nitinol)".837, SPOS, 307.381
"SMAStrip (Nitinol)".838, SPOS, 309.02
"SMAStrip (Nitinol)".839, SPOS, 331.945
"SMAStrip (Nitinol)".840, SPOS, 305.438
"SMAStrip (Nitinol)".841, SPOS, 308.615
"SMAStrip (Nitinol)".842, SPOS, 331.984
"SMAStrip (Nitinol)".843, SPOS, 306.299
"SMAStrip (Nitinol)".844, SPOS, 346.58
"SMAStrip (Nitinol)".845, SPOS, 334.282
"SMAStrip (Nitinol)".846, SPOS, 310.334
"SMAStrip (Nitinol)".847, SPOS, 345.815
"SMAStrip (Nitinol)".848, SPOS, 338.291
"SMAStrip (Nitinol)".849, SPOS, 316.689
"SMAStrip (Nitinol)".850, SPOS, 279.047
"SMAStrip (Nitinol)".851, SPOS, 344.03
"SMAStrip (Nitinol)".852, SPOS, 322.49
"SMAStrip (Nitinol)".853, SPOS, 350.749
"SMAStrip (Nitinol)".854, SPOS, 327.863
"SMAStrip (Nitinol)".855, SPOS, 254.478
"SMAStrip (Nitinol)".856, SPOS, 343.422
"SMAStrip (Nitinol)".857, SPOS, 335.363
"SMAStrip (Nitinol)".858, SPOS, 258.455
"SMAStrip (Nitinol)".859, SPOS, 340.082
"SMAStrip (Nitinol)".860, SPOS, 325.582
"SMAStrip (Nitinol)".861, SPOS, 338.874
"SMAStrip (Nitinol)".862, SPOS, 328.689
"SMAStrip (Nitinol)".863, SPOS, 268.685
"SMAStrip (Nitinol)".864, SPOS, 309.423
"SMAStrip (Nitinol)".865, SPOS, 316.594
"SMAStrip (Nitinol)".866, SPOS, 305.097
"SMAStrip (Nitinol)".867, SPOS, 346.899
"SMAStrip (Nitinol)".868, SPOS, 335.549
"SMAStrip (Nitinol)".869, SPOS, 299.664
"SMAStrip (Nitinol)".870, SPOS, 344.223
"SMAStrip (Nitinol)".871, SPOS, 320.602
"SMAStrip (Nitinol)".872, SPOS, 306.948
"SMAStrip (Nitinol)".873, SPOS, 296.791
"SMAStrip (Nitinol)".874, SPOS, 321.555
"SMAStrip (Nitinol)".875, SPOS, 323.486
"SMAStrip (Nitinol)".876, SPOS, 291.951
"SMAStrip (Nitinol)".877, SPOS, 329.892
"SMAStrip (Nitinol)".878, SPOS, 344.117
"SMAStrip (Nitinol)".879, SPOS, 337.785
"SMAStrip (Nitinol)".880, SPOS, 347.395
"SMAStrip (Nitinol)".881, SPOS, 294.908
"SMAStrip (Nitinol)".882, SPOS, 330.296
"SMAStrip (Nitinol)".883, SPOS, 328.513
"SMAStrip (Nitinol)".884, SPOS, 336.482
"SMAStrip (Nitinol)".885, SPOS, 334.152
"SMAStrip (Nitinol)".886, SPOS, 325.292
"SMAStrip (Nitinol)".887, SPOS, 312.391
"SMAStrip (Nitinol)".888, SPOS, 317.198
"SMAStrip (Nitinol)".889, SPOS, 334.479
"SMAStrip (Nitinol)".890, SPOS, 336.685
"SMAStrip (Nitinol)".891, SPOS, 349.772
"SMAStrip (Nitinol)".892, SPOS, 342.094
"SMAStrip (Nitinol)".893, SPOS, 334.033
"SMAStrip (Nitinol)".894, SPOS, 350.276
"SMAStrip (Nitinol)".895, SPOS, 355.595
"SMAStrip (Nitinol)".896, SPOS, 355.946
"SMAStrip (Nitinol)".897, SPOS, 355.624
"SMAStrip (Nitinol)".898, SPOS, 354.351
"SMAStrip (Nitinol)".899, SPOS, 353.948
"SMAStrip (Nitinol)".900, SPOS, 355.271
"SMAStrip (Nitinol)".901, SPOS, 353.948
"SMAStrip (Nitinol)".902, SPOS, 353.076
"SMAStrip (Nitinol)".903, SPOS, 354.534
"SMAStrip (Nitinol)".904, SPOS, 355.26
"SMAStrip (Nitinol)".905, SPOS, 354.317
"SMAStrip (Nitinol)".906, SPOS, 355.702
"SMAStrip (Nitinol)".907, SPOS, 355.741
"SMAStrip (Nitinol)".908, SPOS, 355.072
"SMAStrip (Nitinol)".909, SPOS, 355.016
"SMAStrip (Nitinol)".910, SPOS, 355.2
"SMAStrip (Nitinol)".911, SPOS, 356.352
"SMAStrip (Nitinol)".912, SPOS, 354.841
"SMAStrip (Nitinol)".913, SPOS, 355.621
"SMAStrip (Nitinol)".914, SPOS, 354.012
"SMAStrip (Nitinol)".915, SPOS, 355.03
"SMAStrip (Nitinol)".916, SPOS, 354.565
"SMAStrip (Nitinol)".917, SPOS, 355.406
"SMAStrip (Nitinol)".918, SPOS, 355.07
"SMAStrip (Nitinol)".919, SPOS, 353.889
"SMAStrip (Nitinol)".920, SPOS, 356.159
"SMAStrip (Nitinol)".921, SPOS, 354.381
"SMAStrip (Nitinol)".922, SPOS, 355.324
"SMAStrip (Nitinol)".923, SPOS, 355.388
"SMAStrip (Nitinol)".924, SPOS, 355.188
"SMAStrip (Nitinol)".925, SPOS, 354.365
"SMAStrip (Nitinol)".926, SPOS, 354.812
"SMAStrip (Nitinol)".927, SPOS, 355.295
"SMAStrip (Nitinol)".928, SPOS, 354.292
"SMAStrip (Nitinol)".929, SPOS, 354.661
"SMAStrip (Nitinol)".930, SPOS, 352.9
"SMAStrip (Nitinol)".931, SPOS, 353.035
"SMAStrip (Nitinol)".932, SPOS, 353.193
"SMAStrip (Nitinol)".933, SPOS, 355.197
"SMAStrip (Nitinol)".934, SPOS, 354.716
"SMAStrip (Nitinol)".935, SPOS, 355.731
"SMAStrip (Nitinol)".936, SPOS, 356.373
"SMAStrip (Nitinol)".937, SPOS, 354.853
"SMAStrip (Nitinol)".938, SPOS, 355.28
"SMAStrip (Nitinol)".939, SPOS, 355.363
"SMAStrip (Nitinol)".940, SPOS, 353.838
"SMAStrip (Nitinol)".941, SPOS, 353.869
"SMAStrip (Nitinol)".942, SPOS, 351.631
"SMAStrip (Nitinol)".943, SPOS, 356.234
"SMAStrip (Nitinol)".944, SPOS, 356.028
"SMAStrip (Nitinol)".945, SPOS, 352.265
"SMAStrip (Nitinol)".946, SPOS, 355.966
"SMAStrip (Nitinol)".947, SPOS, 356.275
"SMAStrip (Nitinol)".948, SPOS, 355.709
"SMAStrip (Nitinol)".949, SPOS, 355.864
"SMAStrip (Nitinol)".950, SPOS, 356.299
"SMAStrip (Nitinol)".951, SPOS, 355.116
"SMAStrip (Nitinol)".952, SPOS, 355.359
"SMAStrip (Nitinol)".953, SPOS, 352.097
"SMAStrip (Nitinol)".954, SPOS, 356.052
"SMAStrip (Nitinol)".955, SPOS, 355.477
"SMAStrip (Nitinol)".956, SPOS, 355.154
"SMAStrip (Nitinol)".957, SPOS, 353.863
"SMAStrip (Nitinol)".958, SPOS, 352.906
"SMAStrip (Nitinol)".959, SPOS, 354.47
"SMAStrip (Nitinol)".960, SPOS, 352.269
"SMAStrip (Nitinol)".961, SPOS, 354.863
"SMAStrip (Nitinol)".962, SPOS, 354.211
"SMAStrip (Nitinol)".963, SPOS, 352.559
"SMAStrip (Nitinol)".964, SPOS, 354.031
"SMAStrip (Nitinol)".965, SPOS, 356.339
"SMAStrip (Nitinol)".966, SPOS, 354.742
"SMAStrip (Nitinol)".967, SPOS, 355.973
"SMAStrip (Nitinol)".968, SPOS, 355.554
"SMAStrip (Nitinol)".969, SPOS, 350.87
"SMAStrip (Nitinol)".970, SPOS, 353.133
"SMAStrip (Nitinol)".971, SPOS, 352.337
"SMAStrip (Nitinol)".972, SPOS, 354.333
"SMAStrip (Nitinol)".973, SPOS, 343.198
"SMAStrip (Nitinol)".974, SPOS, 354.942
"SMAStrip (Nitinol)".975, SPOS, 355.39
"SMAStrip (Nitinol)".976, SPOS, 354.985
"SMAStrip (Nitinol)".977, SPOS, 354.648
"SMAStrip (Nitinol)".978, SPOS, 355.164
"SMAStrip (Nitinol)".979, SPOS, 355.49
"SMAStrip (Nitinol)".980, SPOS, 353.294
"SMAStrip (Nitinol)".981, SPOS, 353.137
"SMAStrip (Nitinol)".982, SPOS, 355.578
"SMAStrip (Nitinol)".983, SPOS, 351.877
"SMAStrip (Nitinol)".984, SPOS, 347.337
"SMAStrip (Nitinol)".985, SPOS, 349.602
"SMAStrip (Nitinol)".986, SPOS, 354.464
"SMAStrip (Nitinol)".987, SPOS, 321.986
"SMAStrip (Nitinol)".988, SPOS, 353.324
"SMAStrip (Nitinol)".989, SPOS, 338.693
"SMAStrip (Nitinol)".990, SPOS, 354.682
"SMAStrip (Nitinol)".991, SPOS, 338.643
"SMAStrip (Nitinol)".992, SPOS, 346.086
"SMAStrip (Nitinol)".993, SPOS, 353.464
"SMAStrip (Nitinol)".994, SPOS, 342.687
"SMAStrip (Nitinol)".995, SPOS, 346.275
"SMAStrip (Nitinol)".996, SPOS, 353.824
"SMAStrip (Nitinol)".997, SPOS, 346.818
"SMAStrip (Nitinol)".998, SPOS, 353.877
"SMAStrip (Nitinol)".999, SPOS, 345.427
"SMAStrip (Nitinol)".1000, SPOS, 354.88
"SMAStrip (Nitinol)".1001, SPOS, 342.812
"SMAStrip (Nitinol)".1002, SPOS, 353.175
"SMAStrip (Nitinol)".1003, SPOS, 348.845
"SMAStrip (Nitinol)".1004, SPOS, 339.849
"SMAStrip (Nitinol)".1005, SPOS, 340.5
"SMAStrip (Nitinol)".1006, SPOS, 351.046
"SMAStrip (Nitinol)".1007, SPOS, 341.111
"SMAStrip (Nitinol)".1008, SPOS, 351.586
"SMAStrip (Nitinol)".1009, SPOS, 341.5
"SMAStrip (Nitinol)".1010, SPOS, 354.62
"SMAStrip (Nitinol)".1011, SPOS, 344.232
"SMAStrip (Nitinol)".1012, SPOS, 354.752
"SMAStrip (Nitinol)".1013, SPOS, 352.334
"SMAStrip (Nitinol)".1014, SPOS, 346.054
"SMAStrip (Nitinol)".1015, SPOS, 353.252
"SMAStrip (Nitinol)".1016, SPOS, 340.507
"SMAStrip (Nitinol)".1017, SPOS, 353.386
"SMAStrip (Nitinol)".1018, SPOS, 336.141
"SMAStrip (Nitinol)".1019, SPOS, 351.445
"SMAStrip (Nitinol)".1020, SPOS, 353.147
"SMAStrip (Nitinol)".1021, SPOS, 339.869
"SMAStrip (Nitinol)".1022, SPOS, 356.241
"SMAStrip (Nitinol)".1023, SPOS, 354.745
"SMAStrip (Nitinol)".1024, SPOS, 350.11
"SMAStrip (Nitinol)".1025, SPOS, 351.528
"SMAStrip (Nitinol)".1026, SPOS, 344.458
"SMAStrip (Nitinol)".1027, SPOS, 337.891
"SMAStrip (Nitinol)".1028, SPOS, 353.056
"SMAStrip (Nitinol)".1029, SPOS, 332.843
"SMAStrip (Nitinol)".1030, SPOS, 353.994
"SMAStrip (Nitinol)".1031, SPOS, 341.105
"SMAStrip (Nitinol)".1032, SPOS, 352.873
"SMAStrip (Nitinol)".1033, SPOS, 344.476
"SMAStrip (Nitinol)".1034, SPOS, 346.811
"SMAStrip (Nitinol)".1035, SPOS, 354.031
"SMAStrip (Nitinol)".1036, SPOS, 346.751
"SMAStrip (Nitinol)".1037, SPOS, 352.099
"SMAStrip (Nitinol)".1038, SPOS, 344.501
"SMAStrip (Nitinol)".1039, SPOS, 352.138
"SMAStrip (Nitinol)".1040, SPOS, 342.241
"SMAStrip (Nitinol)".1041, SPOS, 350.395
"SMAStrip (Nitinol)".1042, SPOS, 340.48
"SMAStrip (Nitinol)".1043, SPOS, 350.241
"SMAStrip (Nitinol)".1044, SPOS, 351.595
"SMAStrip (Nitinol)".1045, SPOS, 339.063
"SMAStrip (Nitinol)".1046, SPOS, 348.661
"SMAStrip (Nitinol)".1047, SPOS, 338.078
"SMAStrip (Nitinol)".1048, SPOS, 339.231
"SMAStrip (Nitinol)".1049, SPOS, 351.917
"SMAStrip (Nitinol)".1050, SPOS, 349.85
"SMAStrip (Nitinol)".1051, SPOS, 340.348
"SMAStrip (Nitinol)".1052, SPOS, 352.588
"SMAStrip (Nitinol)".1053, SPOS, 338.117
"SMAStrip (Nitinol)".1054, SPOS, 353.147
"SMAStrip (Nitinol)".1055, SPOS, 338.579
"SMAStrip (Nitinol)".1056, SPOS, 355.144
"SMAStrip (Nitinol)".1057, SPOS, 344.028
"SMAStrip (Nitinol)".1058, SPOS, 324.786
"SMAStrip (Nitinol)".1059, SPOS, 354.26
"SMAStrip (Nitinol)".1060, SPOS, 310.024
"SMAStrip (Nitinol)".1061, SPOS, 329.652
"SMAStrip (Nitinol)".1062, SPOS, 354.244
"SMAStrip (Nitinol)".1063, SPOS, 346.158
"SMAStrip (Nitinol)".1064, SPOS, 355.135
"SMAStrip (Nitinol)".1065, SPOS, 354.533
"SMAStrip (Nitinol)".1066, SPOS, 355.537
"SMAStrip (Nitinol)".1067, SPOS, 354.552
"SMAStrip (Nitinol)".1068, SPOS, 349.806
"SMAStrip (Nitinol)".1069, SPOS, 350.748
"SMAStrip (Nitinol)".1070, SPOS, 354.634
"SMAStrip (Nitinol)".1071, SPOS, 347.894
"SMAStrip (Nitinol)".1072, SPOS, 354.735
"SMAStrip (Nitinol)".1073, SPOS, 355.562
"SMAStrip (Nitinol)".1074, SPOS, 347.956
"SMAStrip (Nitinol)".1075, SPOS, 331.852
"SMAStrip (Nitinol)".1076, SPOS, 352.574
"SMAStrip (Nitinol)".1077, SPOS, 344.401
"SMAStrip (Nitinol)".1078, SPOS, 355.699
"SMAStrip (Nitinol)".1079, SPOS, 343.633
"SMAStrip (Nitinol)".1080, SPOS, 354.501
"SMAStrip (Nitinol)".1081, SPOS, 343.974
"SMAStrip (Nitinol)".1082, SPOS, 344.261
"SMAStrip (Nitinol)".1083, SPOS, 351.82
"SMAStrip (Nitinol)".1084, SPOS, 345.306
"SMAStrip (Nitinol)".1085, SPOS, 353.008
"SMAStrip (Nitinol)".1086, SPOS, 346.105
"SMAStrip (Nitinol)".1087, SPOS, 353.767
"SMAStrip (Nitinol)".1088, SPOS, 345.773
"SMAStrip (Nitinol)".1089, SPOS, 353.416
"SMAStrip (Nitinol)".1090, SPOS, 345.772
"SMAStrip (Nitinol)".1091, SPOS, 354.475
"SMAStrip (Nitinol)".1092, SPOS, 345.519
"SMAStrip (Nitinol)".1093, SPOS, 354.16
"SMAStrip (Nitinol)".1094, SPOS, 344.247
"SMAStrip (Nitinol)".1095, SPOS, 350.979
"SMAStrip (Nitinol)".1096, SPOS, 343.476
"SMAStrip (Nitinol)".1097, SPOS, 351.734
"SMAStrip (Nitinol)".1098, SPOS, 349.862
"SMAStrip (Nitinol)".1099, SPOS, 341.861
"SMAStrip (Nitinol)".1100, SPOS, 328.329
"SMAStrip (Nitinol)".1101, SPOS, 354.545
"SMAStrip (Nitinol)".1102, SPOS, 338.359
"SMAStrip (Nitinol)".1103, SPOS, 343.537
"SMAStrip (Nitinol)".1104, SPOS, 348.787
"SMAStrip (Nitinol)".1105, SPOS, 346.127
"SMAStrip (Nitinol)".1106, SPOS, 352.263
"SMAStrip (Nitinol)".1107, SPOS, 334.173
"SMAStrip (Nitinol)".1108, SPOS, 353.611
"SMAStrip (Nitinol)".1109, SPOS, 332.552
"SMAStrip (Nitinol)".1110, SPOS, 327.253
"SMAStrip (Nitinol)".1111, SPOS, 343.001
"SMAStrip (Nitinol)".1112, SPOS, 343.744
"SMAStrip (Nitinol)".1113, SPOS, 352.961
"SMAStrip (Nitinol)".1114, SPOS, 349.997
"SMAStrip (Nitinol)".1115, SPOS, 343.501
"SMAStrip (Nitinol)".1116, SPOS, 347.957
"SMAStrip (Nitinol)".1117, SPOS, 354.131
"SMAStrip (Nitinol)".1118, SPOS, 340.342
"SMAStrip (Nitinol)".1119, SPOS, 350.886
"SMAStrip (Nitinol)".1120, SPOS, 348.705
"SMAStrip (Nitinol)".1121, SPOS, 335.313
"SMAStrip (Nitinol)".1122, SPOS, 345.883
"SMAStrip (Nitinol)".1123, SPOS, 334.704
"SMAStrip (Nitinol)".1124, SPOS, 356.287
"SMAStrip (Nitinol)".1125, SPOS, 347.977
"SMAStrip (Nitinol)".1126, SPOS, 335.73
"SMAStrip (Nitinol)".1127, SPOS, 353.122
"SMAStrip (Nitinol)".1128, SPOS, 341.145
"SMAStrip (Nitinol)".1129, SPOS, 353.419
"SMAStrip (Nitinol)".1130, SPOS, 354.339
"SMAStrip (Nitinol)".1131, SPOS, 347.187
"SMAStrip (Nitinol)".1132, SPOS, 354.553
"SMAStrip (Nitinol)".1133, SPOS, 347.546
"SMAStrip (Nitinol)".1134, SPOS, 354.715
"SMAStrip (Nitinol)".1135, SPOS, 343.3
"SMAStrip (Nitinol)".1136, SPOS, 346.362
"SMAStrip (Nitinol)".1137, SPOS, 308.757
"SMAStrip (Nitinol)".1138, SPOS, 354.314
"SMAStrip (Nitinol)".1139, SPOS, 343.917
"SMAStrip (Nitinol)".1140, SPOS, 335.94
"SMAStrip (Nitinol)".1141, SPOS, 351.558
"SMAStrip (Nitinol)".1142, SPOS, 344.369
"SMAStrip (Nitinol)".1143, SPOS, 333.634
"SMAStrip (Nitinol)".1144, SPOS, 348.757
"SMAStrip (Nitinol)".1145, SPOS, 333.722
"SMAStrip (Nitinol)".1146, SPOS, 352.265
"SMAStrip (Nitinol)".1147, SPOS, 336.21
"SMAStrip (Nitinol)".1148, SPOS, 338.43
"SMAStrip (Nitinol)".1149, SPOS, 341.439
"SMAStrip (Nitinol)".1150, SPOS, 353.858
"SMAStrip (Nitinol)".1151, SPOS, 343.417
"SMAStrip (Nitinol)".1152, SPOS, 324.033
"SMAStrip (Nitinol)".1153, SPOS, 354.151
"SMAStrip (Nitinol)".1154, SPOS, 343.59
"SMAStrip (Nitinol)".1155, SPOS, 353.92
"SMAStrip (Nitinol)".1156, SPOS, 343.847
"SMAStrip (Nitinol)".1157, SPOS, 355.607
"SMAStrip (Nitinol)".1158, SPOS, 353.802
"SMAStrip (Nitinol)".1159, SPOS, 344.491
"SMAStrip (Nitinol)".1160, SPOS, 326.431
"SMAStrip (Nitinol)".1161, SPOS, 353.139
"SMAStrip (Nitinol)".1162, SPOS, 333.433
"SMAStrip (Nitinol)".1163, SPOS, 343.331
"SMAStrip (Nitinol)".1164, SPOS, 355.021
"SMAStrip (Nitinol)".1165, SPOS, 350.432
"SMAStrip (Nitinol)".1166, SPOS, 339.101
"SMAStrip (Nitinol)".1167, SPOS, 344.477
"SMAStrip (Nitinol)".1168, SPOS, 344.029
"SMAStrip (Nitinol)".1169, SPOS, 351.059
"SMAStrip (Nitinol)".1170, SPOS, 348.348
"SMAStrip (Nitinol)".1171, SPOS, 343.309
"SMAStrip (Nitinol)".1172, SPOS, 348.754
"SMAStrip (Nitinol)".1173, SPOS, 295.962
"SMAStrip (Nitinol)".1174, SPOS, 283.88
"SMAStrip (Nitinol)".1175, SPOS, 242.13
"SMAStrip (Nitinol)".1176, SPOS, 279.728
"SMAStrip (Nitinol)".1177, SPOS, 283.
"SMAStrip (Nitinol)".1178, SPOS, 294.089
"SMAStrip (Nitinol)".1179, SPOS, 291.257
"SMAStrip (Nitinol)".1180, SPOS, 292.2
"SMAStrip (Nitinol)".1181, SPOS, 289.496
"SMAStrip (Nitinol)".1182, SPOS, 278.089
"SMAStrip (Nitinol)".1183, SPOS, 277.467
"SMAStrip (Nitinol)".1184, SPOS, 284.799
"SMAStrip (Nitinol)".1185, SPOS, 289.198
"SMAStrip (Nitinol)".1186, SPOS, 290.999
"SMAStrip (Nitinol)".1187, SPOS, 303.651
"SMAStrip (Nitinol)".1188, SPOS, 303.087
"SMAStrip (Nitinol)".1189, SPOS, 301.834
"SMAStrip (Nitinol)".1190, SPOS, 313.359
"SMAStrip (Nitinol)".1191, SPOS, 318.048
"SMAStrip (Nitinol)".1192, SPOS, 322.017
"SMAStrip (Nitinol)".1193, SPOS, 281.627
"SMAStrip (Nitinol)".1194, SPOS, 284.484
"SMAStrip (Nitinol)".1195, SPOS, 295.696
"SMAStrip (Nitinol)".1196, SPOS, 287.539
"SMAStrip (Nitinol)".1197, SPOS, 295.348
"SMAStrip (Nitinol)".1198, SPOS, 293.112
"SMAStrip (Nitinol)".1199, SPOS, 306.892
"SMAStrip (Nitinol)".1200, SPOS, 289.147
"SMAStrip (Nitinol)".1201, SPOS, 289.662
"SMAStrip (Nitinol)".1202, SPOS, 289.821
"SMAStrip (Nitinol)".1203, SPOS, 291.116
"SMAStrip (Nitinol)".1204, SPOS, 297.385
"SMAStrip (Nitinol)".1205, SPOS, 257.354
"SMAStrip (Nitinol)".1206, SPOS, 257.102
"SMAStrip (Nitinol)".1207, SPOS, 253.84
"SMAStrip (Nitinol)".1208, SPOS, 250.197
"SMAStrip (Nitinol)".1209, SPOS, 247.035
"SMAStrip (Nitinol)".1210, SPOS, 245.684
"SMAStrip (Nitinol)".1211, SPOS, 245.235
"SMAStrip (Nitinol)".1212, SPOS, 246.631
"SMAStrip (Nitinol)".1213, SPOS, 246.224
"SMAStrip (Nitinol)".1214, SPOS, 265.802
"SMAStrip (Nitinol)".1215, SPOS, 207.447
"SMAStrip (Nitinol)".1216, SPOS, 260.756
"SMAStrip (Nitinol)".1217, SPOS, 260.404
"SMAStrip (Nitinol)".1218, SPOS, 208.307
"SMAStrip (Nitinol)".1219, SPOS, 226.429
"SMAStrip (Nitinol)".1220, SPOS, 231.137
"SMAStrip (Nitinol)".1221, SPOS, 277.331
"SMAStrip (Nitinol)".1222, SPOS, 242.007
"SMAStrip (Nitinol)".1223, SPOS, 246.563
"SMAStrip (Nitinol)".1224, SPOS, 246.562
"SMAStrip (Nitinol)".1225, SPOS, 259.571
"SMAStrip (Nitinol)".1226, SPOS, 261.783
"SMAStrip (Nitinol)".1227, SPOS, 235.554
"SMAStrip (Nitinol)".1228, SPOS, 260.009
"SMAStrip (Nitinol)".1229, SPOS, 219.793
"SMAStrip (Nitinol)".1230, SPOS, 271.002
"SMAStrip (Nitinol)".1231, SPOS, 267.395
"SMAStrip (Nitinol)".1232, SPOS, 208.47
"SMAStrip (Nitinol)".1233, SPOS, 264.145
"SMAStrip (Nitinol)".1234, SPOS, 203.268
"SMAStrip (Nitinol)".1235, SPOS, 238.172
"SMAStrip (Nitinol)".1236, SPOS, 214.084
"SMAStrip (Nitinol)".1237, SPOS, 229.761
"SMAStrip (Nitinol)".1238, SPOS, 286.838
"SMAStrip (Nitinol)".1239, SPOS, 232.983
"SMAStrip (Nitinol)".1240, SPOS, 217.71
"SMAStrip (Nitinol)".1241, SPOS, 244.969
"SMAStrip (Nitinol)".1242, SPOS, 223.534
"SMAStrip (Nitinol)".1243, SPOS, 224.551
"SMAStrip (Nitinol)".1244, SPOS, 231.368
"SMAStrip (Nitinol)".1245, SPOS, 234.351
"SMAStrip (Nitinol)".1246, SPOS, 235.212
"SMAStrip (Nitinol)".1247, SPOS, 251.139
"SMAStrip (Nitinol)".1248, SPOS, 228.755
"SMAStrip (Nitinol)".1249, SPOS, 231.625
"SMAStrip (Nitinol)".1250, SPOS, 200.392
"SMAStrip (Nitinol)".1251, SPOS, 287.504
"SMAStrip (Nitinol)".1252, SPOS, 277.618
"SMAStrip (Nitinol)".1253, SPOS, 223.504
"SMAStrip (Nitinol)".1254, SPOS, 207.374
"SMAStrip (Nitinol)".1255, SPOS, 296.779
"SMAStrip (Nitinol)".1256, SPOS, 299.275
"SMAStrip (Nitinol)".1257, SPOS, 258.124
"SMAStrip (Nitinol)".1258, SPOS, 232.618
"SMAStrip (Nitinol)".1259, SPOS, 284.451
"SMAStrip (Nitinol)".1260, SPOS, 281.154
"SMAStrip (Nitinol)".1261, SPOS, 253.075
"SMAStrip (Nitinol)".1262, SPOS, 248.995
"SMAStrip (Nitinol)".1263, SPOS, 231.137
"SMAStrip (Nitinol)".1264, SPOS, 249.683
"SMAStrip (Nitinol)".1265, SPOS, 226.405
"SMAStrip (Nitinol)".1266, SPOS, 225.498
"SMAStrip (Nitinol)".1267, SPOS, 224.672
"SMAStrip (Nitinol)".1268, SPOS, 313.482
"SMAStrip (Nitinol)".1269, SPOS, 225.844
"SMAStrip (Nitinol)".1270, SPOS, 227.361
"SMAStrip (Nitinol)".1271, SPOS, 279.804
"SMAStrip (Nitinol)".1272, SPOS, 225.523
"SMAStrip (Nitinol)".1273, SPOS, 281.811
"SMAStrip (Nitinol)".1274, SPOS, 296.605
"SMAStrip (Nitinol)".1275, SPOS, 299.853
"SMAStrip (Nitinol)".1276, SPOS, 285.293
"SMAStrip (Nitinol)".1277, SPOS, 297.351
"SMAStrip (Nitinol)".1278, SPOS, 232.316
"SMAStrip (Nitinol)".1279, SPOS, 225.051
"SMAStrip (Nitinol)".1280, SPOS, 349.453
"SMAStrip (Nitinol)".1281, SPOS, 235.654
"SMAStrip (Nitinol)".1282, SPOS, 247.843
"SMAStrip (Nitinol)".1283, SPOS, 226.099
"SMAStrip (Nitinol)".1284, SPOS, 236.238
"SMAStrip (Nitinol)".1285, SPOS, 328.791
"SMAStrip (Nitinol)".1286, SPOS, 319.627
"SMAStrip (Nitinol)".1287, SPOS, 237.245
"SMAStrip (Nitinol)".1288, SPOS, 347.308
"SMAStrip (Nitinol)".1289, SPOS, 288.18
"SMAStrip (Nitinol)".1290, SPOS, 289.716
"SMAStrip (Nitinol)".1291, SPOS, 283.38
"SMAStrip (Nitinol)".1292, SPOS, 282.094
"SMAStrip (Nitinol)".1293, SPOS, 285.293
"SMAStrip (Nitinol)".1294, SPOS, 291.887
"SMAStrip (Nitinol)".1295, SPOS, 292.449
"SMAStrip (Nitinol)".1296, SPOS, 316.532
"SMAStrip (Nitinol)".1297, SPOS, 286.112
"SMAStrip (Nitinol)".1298, SPOS, 314.773
"SMAStrip (Nitinol)".1299, SPOS, 329.133
"SMAStrip (Nitinol)".1300, SPOS, 294.228
"SMAStrip (Nitinol)".1301, SPOS, 263.234
"SMAStrip (Nitinol)".1302, SPOS, 332.872
"SMAStrip (Nitinol)".1303, SPOS, 350.312
"SMAStrip (Nitinol)".1304, SPOS, 329.813
"SMAStrip (Nitinol)".1305, SPOS, 336.349
"SMAStrip (Nitinol)".1306, SPOS, 319.522
"SMAStrip (Nitinol)".1307, SPOS, 338.153
"SMAStrip (Nitinol)".1308, SPOS, 318.521
"SMAStrip (Nitinol)".1309, SPOS, 331.403
"SMAStrip (Nitinol)".1310, SPOS, 347.051
"SMAStrip (Nitinol)".1311, SPOS, 258.05
"SMAStrip (Nitinol)".1312, SPOS, 287.44
"SMAStrip (Nitinol)".1313, SPOS, 348.789
"SMAStrip (Nitinol)".1314, SPOS, 352.477
"SMAStrip (Nitinol)".1315, SPOS, 338.846
"SMAStrip (Nitinol)".1316, SPOS, 345.719
"SMAStrip (Nitinol)".1317, SPOS, 335.671
"SMAStrip (Nitinol)".1318, SPOS, 355.657
"SMAStrip (Nitinol)".1319, SPOS, 329.024
"SMAStrip (Nitinol)".1320, SPOS, 311.264
"SMAStrip (Nitinol)".1321, SPOS, 342.202
"SMAStrip (Nitinol)".1322, SPOS, 347.619
"SMAStrip (Nitinol)".1323, SPOS, 343.152
"SMAStrip (Nitinol)".1324, SPOS, 338.152
"SMAStrip (Nitinol)".1325, SPOS, 331.083
"SMAStrip (Nitinol)".1326, SPOS, 353.591
"SMAStrip (Nitinol)".1327, SPOS, 348.154
"SMAStrip (Nitinol)".1328, SPOS, 323.145
"SMAStrip (Nitinol)".1329, SPOS, 355.11
"SMAStrip (Nitinol)".1330, SPOS, 349.51
"SMAStrip (Nitinol)".1331, SPOS, 354.57
"SMAStrip (Nitinol)".1332, SPOS, 345.81
"SMAStrip (Nitinol)".1333, SPOS, 353.017
"SMAStrip (Nitinol)".1334, SPOS, 353.831
"SMAStrip (Nitinol)".1335, SPOS, 352.37
"SMAStrip (Nitinol)".1336, SPOS, 348.52
"SMAStrip (Nitinol)".1337, SPOS, 349.501
"SMAStrip (Nitinol)".1338, SPOS, 348.612
"SMAStrip (Nitinol)".1339, SPOS, 349.922
"SMAStrip (Nitinol)".1340, SPOS, 335.075
"SMAStrip (Nitinol)".1341, SPOS, 354.375
"SMAStrip (Nitinol)".1342, SPOS, 354.329
"SMAStrip (Nitinol)".1343, SPOS, 337.949
"SMAStrip (Nitinol)".1344, SPOS, 350.676
"SMAStrip (Nitinol)".1345, SPOS, 354.391
"SMAStrip (Nitinol)".1346, SPOS, 353.424
** 
** INTERACTIONS
** 
** Interaction: ToVacuum
*Sradiate, amplitude=InstantVacuum
All-Surfaces, R, 4., 1.
** 
** OUTPUT REQUESTS
** 
*Restart, write, frequency=0
** 
** FIELD OUTPUT: F-Output-HFL
** 
*Output, field
*Element Output, directions=YES
HFL, 
** 
** FIELD OUTPUT: F-Output-1
** 
*Output, field, variable=PRESELECT
** 
** HISTORY OUTPUT: H-Output-1
** 
*Output, history, variable=PRESELECT
*End Step
