*Heading
** Job name: SMAHeatTransient_07 Model name: TowerScenario1_Model
** Generated by: Abaqus/CAE 2025
*Preprint, echo=NO, model=NO, history=NO, contact=NO
*Restart, read, step=9
*Elset, elset=Assembly._PickedSet219, internal, instance=SMAWire_(Nitinol)
  1,  2,  3,  4,  5,  6,  7,  8,  9, 10, 11, 12, 13, 14, 15, 16
 17, 18, 19, 20, 21
** ----------------------------------------------------------------
** 
** STEP: Heat_07
** 
*Step, name=Heat_07, nlgeom=YES, inc=200
*Coupled Temperature-displacement, creep=none, deltmx=5.
0.1, 30., 4e-05, 5.
** 
** LOADS
** 
** Name: SolarFlux   Type: Body heat flux Using Field: FluxField_07
*Dflux
SMAWire_(Nitinol).1, BF, 815849.
SMAWire_(Nitinol).2, BF, 795371.
SMAWire_(Nitinol).3, BF, 811839.
SMAWire_(Nitinol).4, BF, 798893.
SMAWire_(Nitinol).5, BF, 853593.
SMAWire_(Nitinol).6, BF, 834809.
SMAWire_(Nitinol).7, BF, 801485.
SMAWire_(Nitinol).8, BF, 809652.
SMAWire_(Nitinol).9, BF, 830851.
SMAWire_(Nitinol).10, BF, 788097.
SMAWire_(Nitinol).11, BF, 781103.
SMAWire_(Nitinol).12, BF, 835451.
SMAWire_(Nitinol).13, BF, 813427.
SMAWire_(Nitinol).14, BF, 788916.
** 
** OUTPUT REQUESTS
** 
*Restart, write, overlay, frequency=1
** 
** FIELD OUTPUT: F-Output-1
** 
*Output, field, time interval=0.01, time marks=NO
*Node Output
CF, NT, RF, U
*Element Output, directions=YES
LE, PE, PEEQ, PEMAG, S, SDV, TEMP
*Contact Output, variable=PRESELECT
** 
** HISTORY OUTPUT: H-Output-1
** 
*Output, history, variable=PRESELECT
*End Step
