*Heading
** Job name: SMAHeatTransient_10 Model name: TowerScenario1_Model
** Generated by: Abaqus/CAE 2025
*Preprint, echo=NO, model=NO, history=NO, contact=NO
*Restart, read, step=12
*Elset, elset=Assembly._PickedSet222, internal, instance=SMAWire_(Nitinol)
  1,  2,  3,  4,  5,  6,  7,  8,  9, 10, 11, 12, 13, 14, 15, 16
 17, 18, 19, 20, 21
** ----------------------------------------------------------------
** 
** STEP: Heat_10
** 
*Step, name=Heat_10, nlgeom=YES, inc=200
*Coupled Temperature-displacement, creep=none, deltmx=5.
0.1, 30., 4e-05, 5.
** 
** LOADS
** 
** Name: SolarFlux   Type: Body heat flux Using Field: FluxField_10
*Dflux
SMAWire_(Nitinol).1, BF, 827276.
SMAWire_(Nitinol).2, BF, 805771.
SMAWire_(Nitinol).3, BF, 819649.
SMAWire_(Nitinol).4, BF, 808557.
SMAWire_(Nitinol).5, BF, 818876.
SMAWire_(Nitinol).6, BF, 827682.
SMAWire_(Nitinol).7, BF, 807651.
SMAWire_(Nitinol).8, BF, 795418.
SMAWire_(Nitinol).9, BF, 779677.
SMAWire_(Nitinol).10, BF, 788861.
SMAWire_(Nitinol).11, BF, 805709.
SMAWire_(Nitinol).12, BF, 771075.
SMAWire_(Nitinol).13, BF, 806194.
SMAWire_(Nitinol).14, BF, 843713.
** 
** OUTPUT REQUESTS
** 
*Restart, write, overlay, frequency=1
** 
** FIELD OUTPUT: F-Output-1
** 
*Output, field, time interval=0.01, time marks=NO
*Node Output
CF, NT, RF, U
*Element Output, directions=YES
LE, PE, PEEQ, PEMAG, S, SDV, TEMP
*Contact Output, variable=PRESELECT
** 
** HISTORY OUTPUT: H-Output-1
** 
*Output, history, variable=PRESELECT
*End Step
