*Heading
** Job name: SMAHeatTransient_06 Model name: TowerScenario1_Model
** Generated by: Abaqus/CAE 2025
*Preprint, echo=NO, model=NO, history=NO, contact=NO
*Restart, read, step=8
*Elset, elset=Assembly._PickedSet218, internal, instance=SMAWire_(Nitinol)
  1,  2,  3,  4,  5,  6,  7,  8,  9, 10, 11, 12, 13, 14, 15, 16
 17, 18, 19, 20, 21
** ----------------------------------------------------------------
** 
** STEP: Heat_06
** 
*Step, name=Heat_06, nlgeom=YES, inc=200
*Coupled Temperature-displacement, creep=none, deltmx=5.
0.1, 30., 4e-05, 5.
** 
** LOADS
** 
** Name: SolarFlux   Type: Body heat flux Using Field: FluxField_06
*Dflux
SMAWire_(Nitinol).1, BF, 797354.
SMAWire_(Nitinol).2, BF, 826244.
SMAWire_(Nitinol).3, BF, 817542.
SMAWire_(Nitinol).4, BF, 815305.
SMAWire_(Nitinol).5, BF, 822172.
SMAWire_(Nitinol).6, BF, 832375.
SMAWire_(Nitinol).7, BF, 793876.
SMAWire_(Nitinol).8, BF, 828829.
SMAWire_(Nitinol).9, BF, 821614.
SMAWire_(Nitinol).10, BF, 828323.
SMAWire_(Nitinol).11, BF, 807425.
SMAWire_(Nitinol).12, BF, 797181.
SMAWire_(Nitinol).13, BF, 834892.
SMAWire_(Nitinol).14, BF, 805213.
** 
** OUTPUT REQUESTS
** 
*Restart, write, overlay, frequency=1
** 
** FIELD OUTPUT: F-Output-1
** 
*Output, field, time interval=0.01, time marks=NO
*Node Output
CF, NT, RF, U
*Element Output, directions=YES
LE, PE, PEEQ, PEMAG, S, SDV, TEMP
*Contact Output, variable=PRESELECT
** 
** HISTORY OUTPUT: H-Output-1
** 
*Output, history, variable=PRESELECT
*End Step
