*Heading
** Job name: SMAHeatTransient_20 Model name: TowerScenario1_Model
** Generated by: Abaqus/CAE 2025
*Preprint, echo=NO, model=NO, history=NO, contact=NO
*Restart, read, step=22
*Elset, elset=Assembly._PickedSet232, internal, instance=SMAWire_(Nitinol)
  1,  2,  3,  4,  5,  6,  7,  8,  9, 10, 11, 12, 13, 14, 15, 16
 17, 18, 19, 20, 21
** ----------------------------------------------------------------
** 
** STEP: Heat_20
** 
*Step, name=Heat_20, nlgeom=YES, inc=200
*Coupled Temperature-displacement, creep=none, deltmx=5.
0.1, 30., 4e-05, 5.
** 
** LOADS
** 
** Name: SolarFlux   Type: Body heat flux Using Field: FluxField_20
*Dflux
SMAWire_(Nitinol).1, BF, 832207.
SMAWire_(Nitinol).2, BF, 799405.
SMAWire_(Nitinol).3, BF, 820268.
SMAWire_(Nitinol).4, BF, 837651.
SMAWire_(Nitinol).5, BF, 812269.
SMAWire_(Nitinol).6, BF, 799724.
SMAWire_(Nitinol).7, BF, 825705.
SMAWire_(Nitinol).8, BF, 843200.
SMAWire_(Nitinol).9, BF, 836324.
SMAWire_(Nitinol).10, BF, 842765.
SMAWire_(Nitinol).11, BF, 836720.
SMAWire_(Nitinol).12, BF, 819927.
SMAWire_(Nitinol).13, BF, 799787.
SMAWire_(Nitinol).14, BF, 806227.
** 
** OUTPUT REQUESTS
** 
*Restart, write, overlay, frequency=1
** 
** FIELD OUTPUT: F-Output-1
** 
*Output, field, time interval=0.01, time marks=NO
*Node Output
CF, NT, RF, U
*Element Output, directions=YES
LE, PE, PEEQ, PEMAG, S, SDV, TEMP
*Contact Output, variable=PRESELECT
** 
** HISTORY OUTPUT: H-Output-1
** 
*Output, history, variable=PRESELECT
*End Step
