*Heading
** Job name: SMAHeatTransient_19 Model name: TowerScenario1_Model
** Generated by: Abaqus/CAE 2025
*Preprint, echo=NO, model=NO, history=NO, contact=NO
*Restart, read, step=21
*Elset, elset=Assembly._PickedSet231, internal, instance=SMAWire_(Nitinol)
  1,  2,  3,  4,  5,  6,  7,  8,  9, 10, 11, 12, 13, 14, 15, 16
 17, 18, 19, 20, 21
** ----------------------------------------------------------------
** 
** STEP: Heat_19
** 
*Step, name=Heat_19, nlgeom=YES, inc=200
*Coupled Temperature-displacement, creep=none, deltmx=5.
0.1, 30., 4e-05, 5.
** 
** LOADS
** 
** Name: SolarFlux   Type: Body heat flux Using Field: FluxField_19
*Dflux
SMAWire_(Nitinol).1, BF, 759465.
SMAWire_(Nitinol).2, BF, 779601.
SMAWire_(Nitinol).3, BF, 807503.
SMAWire_(Nitinol).4, BF, 834113.
SMAWire_(Nitinol).5, BF, 825486.
SMAWire_(Nitinol).6, BF, 818069.
SMAWire_(Nitinol).7, BF, 801296.
SMAWire_(Nitinol).8, BF, 784286.
SMAWire_(Nitinol).9, BF, 799441.
SMAWire_(Nitinol).10, BF, 819575.
SMAWire_(Nitinol).11, BF, 808556.
SMAWire_(Nitinol).12, BF, 804424.
SMAWire_(Nitinol).13, BF, 792222.
SMAWire_(Nitinol).14, BF, 807359.
** 
** OUTPUT REQUESTS
** 
*Restart, write, overlay, frequency=1
** 
** FIELD OUTPUT: F-Output-1
** 
*Output, field, time interval=0.01, time marks=NO
*Node Output
CF, NT, RF, U
*Element Output, directions=YES
LE, PE, PEEQ, PEMAG, S, SDV, TEMP
*Contact Output, variable=PRESELECT
** 
** HISTORY OUTPUT: H-Output-1
** 
*Output, history, variable=PRESELECT
*End Step
