*Heading
 Comparison run (no iteration)
** Job name: SMAHeatTransient_Comparison Model name: Model_Comparison
** Generated by: Abaqus/CAE 2025
*Preprint, echo=NO, model=NO, history=NO, contact=NO
**
** PARTS
**
*Part, name=SMAStrip_(Nitinol)
*Node
      1,           0.,           0.,           0.
      2, 0.00999999978,           0.,           0.
      3, 0.0199999996,           0.,           0.
      4, 0.0299999993,           0.,           0.
      5, 0.0399999991,           0.,           0.
      6, 0.0500000007,           0.,           0.
      7, 0.0599999987,           0.,           0.
      8, 0.0700000003,           0.,           0.
      9, 0.0799999982,           0.,           0.
     10, 0.0900000036,           0.,           0.
     11,  0.100000001,           0.,           0.
     12,  0.109999999,           0.,           0.
     13,  0.119999997,           0.,           0.
     14,  0.129999995,           0.,           0.
     15,  0.140000001,           0.,           0.
     16,  0.150000006,           0.,           0.
     17,  0.159999996,           0.,           0.
     18,  0.170000002,           0.,           0.
     19,  0.180000007,           0.,           0.
     20,  0.189999998,           0.,           0.
     21,  0.200000003,           0.,           0.
     22,  0.209999993,           0.,           0.
     23,  0.219999999,           0.,           0.
     24,  0.230000004,           0.,           0.
     25,  0.239999995,           0.,           0.
     26,         0.25,           0.,           0.
     27,   0.25999999,           0.,           0.
     28,  0.270000011,           0.,           0.
     29,  0.280000001,           0.,           0.
     30,  0.289999992,           0.,           0.
     31,  0.300000012,           0.,           0.
     32,  0.310000002,           0.,           0.
     33,  0.319999993,           0.,           0.
     34,  0.330000013,           0.,           0.
     35,  0.340000004,           0.,           0.
     36,  0.349999994,           0.,           0.
     37,  0.360000014,           0.,           0.
     38,  0.370000005,           0.,           0.
     39,  0.379999995,           0.,           0.
     40,  0.389999986,           0.,           0.
     41,  0.400000006,           0.,           0.
     42,  0.409999996,           0.,           0.
     43,  0.419999987,           0.,           0.
     44,  0.430000007,           0.,           0.
     45,  0.439999998,           0.,           0.
     46,  0.449999988,           0.,           0.
     47,  0.460000008,           0.,           0.
     48,  0.469999999,           0.,           0.
     49,  0.479999989,           0.,           0.
     50,   0.49000001,           0.,           0.
     51,          0.5,           0.,           0.
     52,   0.50999999,           0.,           0.
     53,  0.519999981,           0.,           0.
     54,  0.529999971,           0.,           0.
     55,  0.540000021,           0.,           0.
     56,  0.550000012,           0.,           0.
     57,  0.560000002,           0.,           0.
     58,  0.569999993,           0.,           0.
     59,  0.579999983,           0.,           0.
     60,  0.589999974,           0.,           0.
     61,  0.600000024,           0.,           0.
     62,  0.610000014,           0.,           0.
     63,  0.620000005,           0.,           0.
     64,  0.629999995,           0.,           0.
     65,  0.639999986,           0.,           0.
     66,  0.649999976,           0.,           0.
     67,  0.660000026,           0.,           0.
     68,  0.670000017,           0.,           0.
     69,  0.680000007,           0.,           0.
     70,  0.689999998,           0.,           0.
     71,  0.699999988,           0.,           0.
     72,  0.709999979,           0.,           0.
     73,  0.720000029,           0.,           0.
     74,  0.730000019,           0.,           0.
     75,   0.74000001,           0.,           0.
     76,         0.75,           0.,           0.
     77,   0.75999999,           0.,           0.
     78,  0.769999981,           0.,           0.
     79,  0.779999971,           0.,           0.
     80,  0.790000021,           0.,           0.
     81,  0.800000012,           0.,           0.
     82,  0.810000002,           0.,           0.
     83,  0.819999993,           0.,           0.
     84,  0.829999983,           0.,           0.
     85,  0.839999974,           0.,           0.
     86,  0.850000024,           0.,           0.
     87,  0.860000014,           0.,           0.
     88,  0.870000005,           0.,           0.
     89,  0.879999995,           0.,           0.
     90,  0.889999986,           0.,           0.
     91,  0.899999976,           0.,           0.
     92,  0.910000026,           0.,           0.
     93,  0.920000017,           0.,           0.
     94,  0.930000007,           0.,           0.
     95,  0.939999998,           0.,           0.
     96,  0.949999988,           0.,           0.
     97,  0.959999979,           0.,           0.
     98,  0.970000029,           0.,           0.
     99,  0.980000019,           0.,           0.
    100,   0.99000001,           0.,           0.
    101,           1.,           0.,           0.
    102,           0., 0.00999999978,           0.
    103, 0.00999999978, 0.00999999978,           0.
    104, 0.0199999996, 0.00999999978,           0.
    105, 0.0299999993, 0.00999999978,           0.
    106, 0.0399999991, 0.00999999978,           0.
    107, 0.0500000007, 0.00999999978,           0.
    108, 0.0599999987, 0.00999999978,           0.
    109, 0.0700000003, 0.00999999978,           0.
    110, 0.0799999982, 0.00999999978,           0.
    111, 0.0900000036, 0.00999999978,           0.
    112,  0.100000001, 0.00999999978,           0.
    113,  0.109999999, 0.00999999978,           0.
    114,  0.119999997, 0.00999999978,           0.
    115,  0.129999995, 0.00999999978,           0.
    116,  0.140000001, 0.00999999978,           0.
    117,  0.150000006, 0.00999999978,           0.
    118,  0.159999996, 0.00999999978,           0.
    119,  0.170000002, 0.00999999978,           0.
    120,  0.180000007, 0.00999999978,           0.
    121,  0.189999998, 0.00999999978,           0.
    122,  0.200000003, 0.00999999978,           0.
    123,  0.209999993, 0.00999999978,           0.
    124,  0.219999999, 0.00999999978,           0.
    125,  0.230000004, 0.00999999978,           0.
    126,  0.239999995, 0.00999999978,           0.
    127,         0.25, 0.00999999978,           0.
    128,   0.25999999, 0.00999999978,           0.
    129,  0.270000011, 0.00999999978,           0.
    130,  0.280000001, 0.00999999978,           0.
    131,  0.289999992, 0.00999999978,           0.
    132,  0.300000012, 0.00999999978,           0.
    133,  0.310000002, 0.00999999978,           0.
    134,  0.319999993, 0.00999999978,           0.
    135,  0.330000013, 0.00999999978,           0.
    136,  0.340000004, 0.00999999978,           0.
    137,  0.349999994, 0.00999999978,           0.
    138,  0.360000014, 0.00999999978,           0.
    139,  0.370000005, 0.00999999978,           0.
    140,  0.379999995, 0.00999999978,           0.
    141,  0.389999986, 0.00999999978,           0.
    142,  0.400000006, 0.00999999978,           0.
    143,  0.409999996, 0.00999999978,           0.
    144,  0.419999987, 0.00999999978,           0.
    145,  0.430000007, 0.00999999978,           0.
    146,  0.439999998, 0.00999999978,           0.
    147,  0.449999988, 0.00999999978,           0.
    148,  0.460000008, 0.00999999978,           0.
    149,  0.469999999, 0.00999999978,           0.
    150,  0.479999989, 0.00999999978,           0.
    151,   0.49000001, 0.00999999978,           0.
    152,          0.5, 0.00999999978,           0.
    153,   0.50999999, 0.00999999978,           0.
    154,  0.519999981, 0.00999999978,           0.
    155,  0.529999971, 0.00999999978,           0.
    156,  0.540000021, 0.00999999978,           0.
    157,  0.550000012, 0.00999999978,           0.
    158,  0.560000002, 0.00999999978,           0.
    159,  0.569999993, 0.00999999978,           0.
    160,  0.579999983, 0.00999999978,           0.
    161,  0.589999974, 0.00999999978,           0.
    162,  0.600000024, 0.00999999978,           0.
    163,  0.610000014, 0.00999999978,           0.
    164,  0.620000005, 0.00999999978,           0.
    165,  0.629999995, 0.00999999978,           0.
    166,  0.639999986, 0.00999999978,           0.
    167,  0.649999976, 0.00999999978,           0.
    168,  0.660000026, 0.00999999978,           0.
    169,  0.670000017, 0.00999999978,           0.
    170,  0.680000007, 0.00999999978,           0.
    171,  0.689999998, 0.00999999978,           0.
    172,  0.699999988, 0.00999999978,           0.
    173,  0.709999979, 0.00999999978,           0.
    174,  0.720000029, 0.00999999978,           0.
    175,  0.730000019, 0.00999999978,           0.
    176,   0.74000001, 0.00999999978,           0.
    177,         0.75, 0.00999999978,           0.
    178,   0.75999999, 0.00999999978,           0.
    179,  0.769999981, 0.00999999978,           0.
    180,  0.779999971, 0.00999999978,           0.
    181,  0.790000021, 0.00999999978,           0.
    182,  0.800000012, 0.00999999978,           0.
    183,  0.810000002, 0.00999999978,           0.
    184,  0.819999993, 0.00999999978,           0.
    185,  0.829999983, 0.00999999978,           0.
    186,  0.839999974, 0.00999999978,           0.
    187,  0.850000024, 0.00999999978,           0.
    188,  0.860000014, 0.00999999978,           0.
    189,  0.870000005, 0.00999999978,           0.
    190,  0.879999995, 0.00999999978,           0.
    191,  0.889999986, 0.00999999978,           0.
    192,  0.899999976, 0.00999999978,           0.
    193,  0.910000026, 0.00999999978,           0.
    194,  0.920000017, 0.00999999978,           0.
    195,  0.930000007, 0.00999999978,           0.
    196,  0.939999998, 0.00999999978,           0.
    197,  0.949999988, 0.00999999978,           0.
    198,  0.959999979, 0.00999999978,           0.
    199,  0.970000029, 0.00999999978,           0.
    200,  0.980000019, 0.00999999978,           0.
    201,   0.99000001, 0.00999999978,           0.
    202,           1., 0.00999999978,           0.
    203,           0., 0.0199999996,           0.
    204, 0.00999999978, 0.0199999996,           0.
    205, 0.0199999996, 0.0199999996,           0.
    206, 0.0299999993, 0.0199999996,           0.
    207, 0.0399999991, 0.0199999996,           0.
    208, 0.0500000007, 0.0199999996,           0.
    209, 0.0599999987, 0.0199999996,           0.
    210, 0.0700000003, 0.0199999996,           0.
    211, 0.0799999982, 0.0199999996,           0.
    212, 0.0900000036, 0.0199999996,           0.
    213,  0.100000001, 0.0199999996,           0.
    214,  0.109999999, 0.0199999996,           0.
    215,  0.119999997, 0.0199999996,           0.
    216,  0.129999995, 0.0199999996,           0.
    217,  0.140000001, 0.0199999996,           0.
    218,  0.150000006, 0.0199999996,           0.
    219,  0.159999996, 0.0199999996,           0.
    220,  0.170000002, 0.0199999996,           0.
    221,  0.180000007, 0.0199999996,           0.
    222,  0.189999998, 0.0199999996,           0.
    223,  0.200000003, 0.0199999996,           0.
    224,  0.209999993, 0.0199999996,           0.
    225,  0.219999999, 0.0199999996,           0.
    226,  0.230000004, 0.0199999996,           0.
    227,  0.239999995, 0.0199999996,           0.
    228,         0.25, 0.0199999996,           0.
    229,   0.25999999, 0.0199999996,           0.
    230,  0.270000011, 0.0199999996,           0.
    231,  0.280000001, 0.0199999996,           0.
    232,  0.289999992, 0.0199999996,           0.
    233,  0.300000012, 0.0199999996,           0.
    234,  0.310000002, 0.0199999996,           0.
    235,  0.319999993, 0.0199999996,           0.
    236,  0.330000013, 0.0199999996,           0.
    237,  0.340000004, 0.0199999996,           0.
    238,  0.349999994, 0.0199999996,           0.
    239,  0.360000014, 0.0199999996,           0.
    240,  0.370000005, 0.0199999996,           0.
    241,  0.379999995, 0.0199999996,           0.
    242,  0.389999986, 0.0199999996,           0.
    243,  0.400000006, 0.0199999996,           0.
    244,  0.409999996, 0.0199999996,           0.
    245,  0.419999987, 0.0199999996,           0.
    246,  0.430000007, 0.0199999996,           0.
    247,  0.439999998, 0.0199999996,           0.
    248,  0.449999988, 0.0199999996,           0.
    249,  0.460000008, 0.0199999996,           0.
    250,  0.469999999, 0.0199999996,           0.
    251,  0.479999989, 0.0199999996,           0.
    252,   0.49000001, 0.0199999996,           0.
    253,          0.5, 0.0199999996,           0.
    254,   0.50999999, 0.0199999996,           0.
    255,  0.519999981, 0.0199999996,           0.
    256,  0.529999971, 0.0199999996,           0.
    257,  0.540000021, 0.0199999996,           0.
    258,  0.550000012, 0.0199999996,           0.
    259,  0.560000002, 0.0199999996,           0.
    260,  0.569999993, 0.0199999996,           0.
    261,  0.579999983, 0.0199999996,           0.
    262,  0.589999974, 0.0199999996,           0.
    263,  0.600000024, 0.0199999996,           0.
    264,  0.610000014, 0.0199999996,           0.
    265,  0.620000005, 0.0199999996,           0.
    266,  0.629999995, 0.0199999996,           0.
    267,  0.639999986, 0.0199999996,           0.
    268,  0.649999976, 0.0199999996,           0.
    269,  0.660000026, 0.0199999996,           0.
    270,  0.670000017, 0.0199999996,           0.
    271,  0.680000007, 0.0199999996,           0.
    272,  0.689999998, 0.0199999996,           0.
    273,  0.699999988, 0.0199999996,           0.
    274,  0.709999979, 0.0199999996,           0.
    275,  0.720000029, 0.0199999996,           0.
    276,  0.730000019, 0.0199999996,           0.
    277,   0.74000001, 0.0199999996,           0.
    278,         0.75, 0.0199999996,           0.
    279,   0.75999999, 0.0199999996,           0.
    280,  0.769999981, 0.0199999996,           0.
    281,  0.779999971, 0.0199999996,           0.
    282,  0.790000021, 0.0199999996,           0.
    283,  0.800000012, 0.0199999996,           0.
    284,  0.810000002, 0.0199999996,           0.
    285,  0.819999993, 0.0199999996,           0.
    286,  0.829999983, 0.0199999996,           0.
    287,  0.839999974, 0.0199999996,           0.
    288,  0.850000024, 0.0199999996,           0.
    289,  0.860000014, 0.0199999996,           0.
    290,  0.870000005, 0.0199999996,           0.
    291,  0.879999995, 0.0199999996,           0.
    292,  0.889999986, 0.0199999996,           0.
    293,  0.899999976, 0.0199999996,           0.
    294,  0.910000026, 0.0199999996,           0.
    295,  0.920000017, 0.0199999996,           0.
    296,  0.930000007, 0.0199999996,           0.
    297,  0.939999998, 0.0199999996,           0.
    298,  0.949999988, 0.0199999996,           0.
    299,  0.959999979, 0.0199999996,           0.
    300,  0.970000029, 0.0199999996,           0.
    301,  0.980000019, 0.0199999996,           0.
    302,   0.99000001, 0.0199999996,           0.
    303,           1., 0.0199999996,           0.
    304,           0., 0.0299999993,           0.
    305, 0.00999999978, 0.0299999993,           0.
    306, 0.0199999996, 0.0299999993,           0.
    307, 0.0299999993, 0.0299999993,           0.
    308, 0.0399999991, 0.0299999993,           0.
    309, 0.0500000007, 0.0299999993,           0.
    310, 0.0599999987, 0.0299999993,           0.
    311, 0.0700000003, 0.0299999993,           0.
    312, 0.0799999982, 0.0299999993,           0.
    313, 0.0900000036, 0.0299999993,           0.
    314,  0.100000001, 0.0299999993,           0.
    315,  0.109999999, 0.0299999993,           0.
    316,  0.119999997, 0.0299999993,           0.
    317,  0.129999995, 0.0299999993,           0.
    318,  0.140000001, 0.0299999993,           0.
    319,  0.150000006, 0.0299999993,           0.
    320,  0.159999996, 0.0299999993,           0.
    321,  0.170000002, 0.0299999993,           0.
    322,  0.180000007, 0.0299999993,           0.
    323,  0.189999998, 0.0299999993,           0.
    324,  0.200000003, 0.0299999993,           0.
    325,  0.209999993, 0.0299999993,           0.
    326,  0.219999999, 0.0299999993,           0.
    327,  0.230000004, 0.0299999993,           0.
    328,  0.239999995, 0.0299999993,           0.
    329,         0.25, 0.0299999993,           0.
    330,   0.25999999, 0.0299999993,           0.
    331,  0.270000011, 0.0299999993,           0.
    332,  0.280000001, 0.0299999993,           0.
    333,  0.289999992, 0.0299999993,           0.
    334,  0.300000012, 0.0299999993,           0.
    335,  0.310000002, 0.0299999993,           0.
    336,  0.319999993, 0.0299999993,           0.
    337,  0.330000013, 0.0299999993,           0.
    338,  0.340000004, 0.0299999993,           0.
    339,  0.349999994, 0.0299999993,           0.
    340,  0.360000014, 0.0299999993,           0.
    341,  0.370000005, 0.0299999993,           0.
    342,  0.379999995, 0.0299999993,           0.
    343,  0.389999986, 0.0299999993,           0.
    344,  0.400000006, 0.0299999993,           0.
    345,  0.409999996, 0.0299999993,           0.
    346,  0.419999987, 0.0299999993,           0.
    347,  0.430000007, 0.0299999993,           0.
    348,  0.439999998, 0.0299999993,           0.
    349,  0.449999988, 0.0299999993,           0.
    350,  0.460000008, 0.0299999993,           0.
    351,  0.469999999, 0.0299999993,           0.
    352,  0.479999989, 0.0299999993,           0.
    353,   0.49000001, 0.0299999993,           0.
    354,          0.5, 0.0299999993,           0.
    355,   0.50999999, 0.0299999993,           0.
    356,  0.519999981, 0.0299999993,           0.
    357,  0.529999971, 0.0299999993,           0.
    358,  0.540000021, 0.0299999993,           0.
    359,  0.550000012, 0.0299999993,           0.
    360,  0.560000002, 0.0299999993,           0.
    361,  0.569999993, 0.0299999993,           0.
    362,  0.579999983, 0.0299999993,           0.
    363,  0.589999974, 0.0299999993,           0.
    364,  0.600000024, 0.0299999993,           0.
    365,  0.610000014, 0.0299999993,           0.
    366,  0.620000005, 0.0299999993,           0.
    367,  0.629999995, 0.0299999993,           0.
    368,  0.639999986, 0.0299999993,           0.
    369,  0.649999976, 0.0299999993,           0.
    370,  0.660000026, 0.0299999993,           0.
    371,  0.670000017, 0.0299999993,           0.
    372,  0.680000007, 0.0299999993,           0.
    373,  0.689999998, 0.0299999993,           0.
    374,  0.699999988, 0.0299999993,           0.
    375,  0.709999979, 0.0299999993,           0.
    376,  0.720000029, 0.0299999993,           0.
    377,  0.730000019, 0.0299999993,           0.
    378,   0.74000001, 0.0299999993,           0.
    379,         0.75, 0.0299999993,           0.
    380,   0.75999999, 0.0299999993,           0.
    381,  0.769999981, 0.0299999993,           0.
    382,  0.779999971, 0.0299999993,           0.
    383,  0.790000021, 0.0299999993,           0.
    384,  0.800000012, 0.0299999993,           0.
    385,  0.810000002, 0.0299999993,           0.
    386,  0.819999993, 0.0299999993,           0.
    387,  0.829999983, 0.0299999993,           0.
    388,  0.839999974, 0.0299999993,           0.
    389,  0.850000024, 0.0299999993,           0.
    390,  0.860000014, 0.0299999993,           0.
    391,  0.870000005, 0.0299999993,           0.
    392,  0.879999995, 0.0299999993,           0.
    393,  0.889999986, 0.0299999993,           0.
    394,  0.899999976, 0.0299999993,           0.
    395,  0.910000026, 0.0299999993,           0.
    396,  0.920000017, 0.0299999993,           0.
    397,  0.930000007, 0.0299999993,           0.
    398,  0.939999998, 0.0299999993,           0.
    399,  0.949999988, 0.0299999993,           0.
    400,  0.959999979, 0.0299999993,           0.
    401,  0.970000029, 0.0299999993,           0.
    402,  0.980000019, 0.0299999993,           0.
    403,   0.99000001, 0.0299999993,           0.
    404,           1., 0.0299999993,           0.
    405,           0., 0.0399999991,           0.
    406, 0.00999999978, 0.0399999991,           0.
    407, 0.0199999996, 0.0399999991,           0.
    408, 0.0299999993, 0.0399999991,           0.
    409, 0.0399999991, 0.0399999991,           0.
    410, 0.0500000007, 0.0399999991,           0.
    411, 0.0599999987, 0.0399999991,           0.
    412, 0.0700000003, 0.0399999991,           0.
    413, 0.0799999982, 0.0399999991,           0.
    414, 0.0900000036, 0.0399999991,           0.
    415,  0.100000001, 0.0399999991,           0.
    416,  0.109999999, 0.0399999991,           0.
    417,  0.119999997, 0.0399999991,           0.
    418,  0.129999995, 0.0399999991,           0.
    419,  0.140000001, 0.0399999991,           0.
    420,  0.150000006, 0.0399999991,           0.
    421,  0.159999996, 0.0399999991,           0.
    422,  0.170000002, 0.0399999991,           0.
    423,  0.180000007, 0.0399999991,           0.
    424,  0.189999998, 0.0399999991,           0.
    425,  0.200000003, 0.0399999991,           0.
    426,  0.209999993, 0.0399999991,           0.
    427,  0.219999999, 0.0399999991,           0.
    428,  0.230000004, 0.0399999991,           0.
    429,  0.239999995, 0.0399999991,           0.
    430,         0.25, 0.0399999991,           0.
    431,   0.25999999, 0.0399999991,           0.
    432,  0.270000011, 0.0399999991,           0.
    433,  0.280000001, 0.0399999991,           0.
    434,  0.289999992, 0.0399999991,           0.
    435,  0.300000012, 0.0399999991,           0.
    436,  0.310000002, 0.0399999991,           0.
    437,  0.319999993, 0.0399999991,           0.
    438,  0.330000013, 0.0399999991,           0.
    439,  0.340000004, 0.0399999991,           0.
    440,  0.349999994, 0.0399999991,           0.
    441,  0.360000014, 0.0399999991,           0.
    442,  0.370000005, 0.0399999991,           0.
    443,  0.379999995, 0.0399999991,           0.
    444,  0.389999986, 0.0399999991,           0.
    445,  0.400000006, 0.0399999991,           0.
    446,  0.409999996, 0.0399999991,           0.
    447,  0.419999987, 0.0399999991,           0.
    448,  0.430000007, 0.0399999991,           0.
    449,  0.439999998, 0.0399999991,           0.
    450,  0.449999988, 0.0399999991,           0.
    451,  0.460000008, 0.0399999991,           0.
    452,  0.469999999, 0.0399999991,           0.
    453,  0.479999989, 0.0399999991,           0.
    454,   0.49000001, 0.0399999991,           0.
    455,          0.5, 0.0399999991,           0.
    456,   0.50999999, 0.0399999991,           0.
    457,  0.519999981, 0.0399999991,           0.
    458,  0.529999971, 0.0399999991,           0.
    459,  0.540000021, 0.0399999991,           0.
    460,  0.550000012, 0.0399999991,           0.
    461,  0.560000002, 0.0399999991,           0.
    462,  0.569999993, 0.0399999991,           0.
    463,  0.579999983, 0.0399999991,           0.
    464,  0.589999974, 0.0399999991,           0.
    465,  0.600000024, 0.0399999991,           0.
    466,  0.610000014, 0.0399999991,           0.
    467,  0.620000005, 0.0399999991,           0.
    468,  0.629999995, 0.0399999991,           0.
    469,  0.639999986, 0.0399999991,           0.
    470,  0.649999976, 0.0399999991,           0.
    471,  0.660000026, 0.0399999991,           0.
    472,  0.670000017, 0.0399999991,           0.
    473,  0.680000007, 0.0399999991,           0.
    474,  0.689999998, 0.0399999991,           0.
    475,  0.699999988, 0.0399999991,           0.
    476,  0.709999979, 0.0399999991,           0.
    477,  0.720000029, 0.0399999991,           0.
    478,  0.730000019, 0.0399999991,           0.
    479,   0.74000001, 0.0399999991,           0.
    480,         0.75, 0.0399999991,           0.
    481,   0.75999999, 0.0399999991,           0.
    482,  0.769999981, 0.0399999991,           0.
    483,  0.779999971, 0.0399999991,           0.
    484,  0.790000021, 0.0399999991,           0.
    485,  0.800000012, 0.0399999991,           0.
    486,  0.810000002, 0.0399999991,           0.
    487,  0.819999993, 0.0399999991,           0.
    488,  0.829999983, 0.0399999991,           0.
    489,  0.839999974, 0.0399999991,           0.
    490,  0.850000024, 0.0399999991,           0.
    491,  0.860000014, 0.0399999991,           0.
    492,  0.870000005, 0.0399999991,           0.
    493,  0.879999995, 0.0399999991,           0.
    494,  0.889999986, 0.0399999991,           0.
    495,  0.899999976, 0.0399999991,           0.
    496,  0.910000026, 0.0399999991,           0.
    497,  0.920000017, 0.0399999991,           0.
    498,  0.930000007, 0.0399999991,           0.
    499,  0.939999998, 0.0399999991,           0.
    500,  0.949999988, 0.0399999991,           0.
    501,  0.959999979, 0.0399999991,           0.
    502,  0.970000029, 0.0399999991,           0.
    503,  0.980000019, 0.0399999991,           0.
    504,   0.99000001, 0.0399999991,           0.
    505,           1., 0.0399999991,           0.
    506,           0., 0.0500000007,           0.
    507, 0.00999999978, 0.0500000007,           0.
    508, 0.0199999996, 0.0500000007,           0.
    509, 0.0299999993, 0.0500000007,           0.
    510, 0.0399999991, 0.0500000007,           0.
    511, 0.0500000007, 0.0500000007,           0.
    512, 0.0599999987, 0.0500000007,           0.
    513, 0.0700000003, 0.0500000007,           0.
    514, 0.0799999982, 0.0500000007,           0.
    515, 0.0900000036, 0.0500000007,           0.
    516,  0.100000001, 0.0500000007,           0.
    517,  0.109999999, 0.0500000007,           0.
    518,  0.119999997, 0.0500000007,           0.
    519,  0.129999995, 0.0500000007,           0.
    520,  0.140000001, 0.0500000007,           0.
    521,  0.150000006, 0.0500000007,           0.
    522,  0.159999996, 0.0500000007,           0.
    523,  0.170000002, 0.0500000007,           0.
    524,  0.180000007, 0.0500000007,           0.
    525,  0.189999998, 0.0500000007,           0.
    526,  0.200000003, 0.0500000007,           0.
    527,  0.209999993, 0.0500000007,           0.
    528,  0.219999999, 0.0500000007,           0.
    529,  0.230000004, 0.0500000007,           0.
    530,  0.239999995, 0.0500000007,           0.
    531,         0.25, 0.0500000007,           0.
    532,   0.25999999, 0.0500000007,           0.
    533,  0.270000011, 0.0500000007,           0.
    534,  0.280000001, 0.0500000007,           0.
    535,  0.289999992, 0.0500000007,           0.
    536,  0.300000012, 0.0500000007,           0.
    537,  0.310000002, 0.0500000007,           0.
    538,  0.319999993, 0.0500000007,           0.
    539,  0.330000013, 0.0500000007,           0.
    540,  0.340000004, 0.0500000007,           0.
    541,  0.349999994, 0.0500000007,           0.
    542,  0.360000014, 0.0500000007,           0.
    543,  0.370000005, 0.0500000007,           0.
    544,  0.379999995, 0.0500000007,           0.
    545,  0.389999986, 0.0500000007,           0.
    546,  0.400000006, 0.0500000007,           0.
    547,  0.409999996, 0.0500000007,           0.
    548,  0.419999987, 0.0500000007,           0.
    549,  0.430000007, 0.0500000007,           0.
    550,  0.439999998, 0.0500000007,           0.
    551,  0.449999988, 0.0500000007,           0.
    552,  0.460000008, 0.0500000007,           0.
    553,  0.469999999, 0.0500000007,           0.
    554,  0.479999989, 0.0500000007,           0.
    555,   0.49000001, 0.0500000007,           0.
    556,          0.5, 0.0500000007,           0.
    557,   0.50999999, 0.0500000007,           0.
    558,  0.519999981, 0.0500000007,           0.
    559,  0.529999971, 0.0500000007,           0.
    560,  0.540000021, 0.0500000007,           0.
    561,  0.550000012, 0.0500000007,           0.
    562,  0.560000002, 0.0500000007,           0.
    563,  0.569999993, 0.0500000007,           0.
    564,  0.579999983, 0.0500000007,           0.
    565,  0.589999974, 0.0500000007,           0.
    566,  0.600000024, 0.0500000007,           0.
    567,  0.610000014, 0.0500000007,           0.
    568,  0.620000005, 0.0500000007,           0.
    569,  0.629999995, 0.0500000007,           0.
    570,  0.639999986, 0.0500000007,           0.
    571,  0.649999976, 0.0500000007,           0.
    572,  0.660000026, 0.0500000007,           0.
    573,  0.670000017, 0.0500000007,           0.
    574,  0.680000007, 0.0500000007,           0.
    575,  0.689999998, 0.0500000007,           0.
    576,  0.699999988, 0.0500000007,           0.
    577,  0.709999979, 0.0500000007,           0.
    578,  0.720000029, 0.0500000007,           0.
    579,  0.730000019, 0.0500000007,           0.
    580,   0.74000001, 0.0500000007,           0.
    581,         0.75, 0.0500000007,           0.
    582,   0.75999999, 0.0500000007,           0.
    583,  0.769999981, 0.0500000007,           0.
    584,  0.779999971, 0.0500000007,           0.
    585,  0.790000021, 0.0500000007,           0.
    586,  0.800000012, 0.0500000007,           0.
    587,  0.810000002, 0.0500000007,           0.
    588,  0.819999993, 0.0500000007,           0.
    589,  0.829999983, 0.0500000007,           0.
    590,  0.839999974, 0.0500000007,           0.
    591,  0.850000024, 0.0500000007,           0.
    592,  0.860000014, 0.0500000007,           0.
    593,  0.870000005, 0.0500000007,           0.
    594,  0.879999995, 0.0500000007,           0.
    595,  0.889999986, 0.0500000007,           0.
    596,  0.899999976, 0.0500000007,           0.
    597,  0.910000026, 0.0500000007,           0.
    598,  0.920000017, 0.0500000007,           0.
    599,  0.930000007, 0.0500000007,           0.
    600,  0.939999998, 0.0500000007,           0.
    601,  0.949999988, 0.0500000007,           0.
    602,  0.959999979, 0.0500000007,           0.
    603,  0.970000029, 0.0500000007,           0.
    604,  0.980000019, 0.0500000007,           0.
    605,   0.99000001, 0.0500000007,           0.
    606,           1., 0.0500000007,           0.
    607,           0., 0.0599999987,           0.
    608, 0.00999999978, 0.0599999987,           0.
    609, 0.0199999996, 0.0599999987,           0.
    610, 0.0299999993, 0.0599999987,           0.
    611, 0.0399999991, 0.0599999987,           0.
    612, 0.0500000007, 0.0599999987,           0.
    613, 0.0599999987, 0.0599999987,           0.
    614, 0.0700000003, 0.0599999987,           0.
    615, 0.0799999982, 0.0599999987,           0.
    616, 0.0900000036, 0.0599999987,           0.
    617,  0.100000001, 0.0599999987,           0.
    618,  0.109999999, 0.0599999987,           0.
    619,  0.119999997, 0.0599999987,           0.
    620,  0.129999995, 0.0599999987,           0.
    621,  0.140000001, 0.0599999987,           0.
    622,  0.150000006, 0.0599999987,           0.
    623,  0.159999996, 0.0599999987,           0.
    624,  0.170000002, 0.0599999987,           0.
    625,  0.180000007, 0.0599999987,           0.
    626,  0.189999998, 0.0599999987,           0.
    627,  0.200000003, 0.0599999987,           0.
    628,  0.209999993, 0.0599999987,           0.
    629,  0.219999999, 0.0599999987,           0.
    630,  0.230000004, 0.0599999987,           0.
    631,  0.239999995, 0.0599999987,           0.
    632,         0.25, 0.0599999987,           0.
    633,   0.25999999, 0.0599999987,           0.
    634,  0.270000011, 0.0599999987,           0.
    635,  0.280000001, 0.0599999987,           0.
    636,  0.289999992, 0.0599999987,           0.
    637,  0.300000012, 0.0599999987,           0.
    638,  0.310000002, 0.0599999987,           0.
    639,  0.319999993, 0.0599999987,           0.
    640,  0.330000013, 0.0599999987,           0.
    641,  0.340000004, 0.0599999987,           0.
    642,  0.349999994, 0.0599999987,           0.
    643,  0.360000014, 0.0599999987,           0.
    644,  0.370000005, 0.0599999987,           0.
    645,  0.379999995, 0.0599999987,           0.
    646,  0.389999986, 0.0599999987,           0.
    647,  0.400000006, 0.0599999987,           0.
    648,  0.409999996, 0.0599999987,           0.
    649,  0.419999987, 0.0599999987,           0.
    650,  0.430000007, 0.0599999987,           0.
    651,  0.439999998, 0.0599999987,           0.
    652,  0.449999988, 0.0599999987,           0.
    653,  0.460000008, 0.0599999987,           0.
    654,  0.469999999, 0.0599999987,           0.
    655,  0.479999989, 0.0599999987,           0.
    656,   0.49000001, 0.0599999987,           0.
    657,          0.5, 0.0599999987,           0.
    658,   0.50999999, 0.0599999987,           0.
    659,  0.519999981, 0.0599999987,           0.
    660,  0.529999971, 0.0599999987,           0.
    661,  0.540000021, 0.0599999987,           0.
    662,  0.550000012, 0.0599999987,           0.
    663,  0.560000002, 0.0599999987,           0.
    664,  0.569999993, 0.0599999987,           0.
    665,  0.579999983, 0.0599999987,           0.
    666,  0.589999974, 0.0599999987,           0.
    667,  0.600000024, 0.0599999987,           0.
    668,  0.610000014, 0.0599999987,           0.
    669,  0.620000005, 0.0599999987,           0.
    670,  0.629999995, 0.0599999987,           0.
    671,  0.639999986, 0.0599999987,           0.
    672,  0.649999976, 0.0599999987,           0.
    673,  0.660000026, 0.0599999987,           0.
    674,  0.670000017, 0.0599999987,           0.
    675,  0.680000007, 0.0599999987,           0.
    676,  0.689999998, 0.0599999987,           0.
    677,  0.699999988, 0.0599999987,           0.
    678,  0.709999979, 0.0599999987,           0.
    679,  0.720000029, 0.0599999987,           0.
    680,  0.730000019, 0.0599999987,           0.
    681,   0.74000001, 0.0599999987,           0.
    682,         0.75, 0.0599999987,           0.
    683,   0.75999999, 0.0599999987,           0.
    684,  0.769999981, 0.0599999987,           0.
    685,  0.779999971, 0.0599999987,           0.
    686,  0.790000021, 0.0599999987,           0.
    687,  0.800000012, 0.0599999987,           0.
    688,  0.810000002, 0.0599999987,           0.
    689,  0.819999993, 0.0599999987,           0.
    690,  0.829999983, 0.0599999987,           0.
    691,  0.839999974, 0.0599999987,           0.
    692,  0.850000024, 0.0599999987,           0.
    693,  0.860000014, 0.0599999987,           0.
    694,  0.870000005, 0.0599999987,           0.
    695,  0.879999995, 0.0599999987,           0.
    696,  0.889999986, 0.0599999987,           0.
    697,  0.899999976, 0.0599999987,           0.
    698,  0.910000026, 0.0599999987,           0.
    699,  0.920000017, 0.0599999987,           0.
    700,  0.930000007, 0.0599999987,           0.
    701,  0.939999998, 0.0599999987,           0.
    702,  0.949999988, 0.0599999987,           0.
    703,  0.959999979, 0.0599999987,           0.
    704,  0.970000029, 0.0599999987,           0.
    705,  0.980000019, 0.0599999987,           0.
    706,   0.99000001, 0.0599999987,           0.
    707,           1., 0.0599999987,           0.
    708,           0., 0.0700000003,           0.
    709, 0.00999999978, 0.0700000003,           0.
    710, 0.0199999996, 0.0700000003,           0.
    711, 0.0299999993, 0.0700000003,           0.
    712, 0.0399999991, 0.0700000003,           0.
    713, 0.0500000007, 0.0700000003,           0.
    714, 0.0599999987, 0.0700000003,           0.
    715, 0.0700000003, 0.0700000003,           0.
    716, 0.0799999982, 0.0700000003,           0.
    717, 0.0900000036, 0.0700000003,           0.
    718,  0.100000001, 0.0700000003,           0.
    719,  0.109999999, 0.0700000003,           0.
    720,  0.119999997, 0.0700000003,           0.
    721,  0.129999995, 0.0700000003,           0.
    722,  0.140000001, 0.0700000003,           0.
    723,  0.150000006, 0.0700000003,           0.
    724,  0.159999996, 0.0700000003,           0.
    725,  0.170000002, 0.0700000003,           0.
    726,  0.180000007, 0.0700000003,           0.
    727,  0.189999998, 0.0700000003,           0.
    728,  0.200000003, 0.0700000003,           0.
    729,  0.209999993, 0.0700000003,           0.
    730,  0.219999999, 0.0700000003,           0.
    731,  0.230000004, 0.0700000003,           0.
    732,  0.239999995, 0.0700000003,           0.
    733,         0.25, 0.0700000003,           0.
    734,   0.25999999, 0.0700000003,           0.
    735,  0.270000011, 0.0700000003,           0.
    736,  0.280000001, 0.0700000003,           0.
    737,  0.289999992, 0.0700000003,           0.
    738,  0.300000012, 0.0700000003,           0.
    739,  0.310000002, 0.0700000003,           0.
    740,  0.319999993, 0.0700000003,           0.
    741,  0.330000013, 0.0700000003,           0.
    742,  0.340000004, 0.0700000003,           0.
    743,  0.349999994, 0.0700000003,           0.
    744,  0.360000014, 0.0700000003,           0.
    745,  0.370000005, 0.0700000003,           0.
    746,  0.379999995, 0.0700000003,           0.
    747,  0.389999986, 0.0700000003,           0.
    748,  0.400000006, 0.0700000003,           0.
    749,  0.409999996, 0.0700000003,           0.
    750,  0.419999987, 0.0700000003,           0.
    751,  0.430000007, 0.0700000003,           0.
    752,  0.439999998, 0.0700000003,           0.
    753,  0.449999988, 0.0700000003,           0.
    754,  0.460000008, 0.0700000003,           0.
    755,  0.469999999, 0.0700000003,           0.
    756,  0.479999989, 0.0700000003,           0.
    757,   0.49000001, 0.0700000003,           0.
    758,          0.5, 0.0700000003,           0.
    759,   0.50999999, 0.0700000003,           0.
    760,  0.519999981, 0.0700000003,           0.
    761,  0.529999971, 0.0700000003,           0.
    762,  0.540000021, 0.0700000003,           0.
    763,  0.550000012, 0.0700000003,           0.
    764,  0.560000002, 0.0700000003,           0.
    765,  0.569999993, 0.0700000003,           0.
    766,  0.579999983, 0.0700000003,           0.
    767,  0.589999974, 0.0700000003,           0.
    768,  0.600000024, 0.0700000003,           0.
    769,  0.610000014, 0.0700000003,           0.
    770,  0.620000005, 0.0700000003,           0.
    771,  0.629999995, 0.0700000003,           0.
    772,  0.639999986, 0.0700000003,           0.
    773,  0.649999976, 0.0700000003,           0.
    774,  0.660000026, 0.0700000003,           0.
    775,  0.670000017, 0.0700000003,           0.
    776,  0.680000007, 0.0700000003,           0.
    777,  0.689999998, 0.0700000003,           0.
    778,  0.699999988, 0.0700000003,           0.
    779,  0.709999979, 0.0700000003,           0.
    780,  0.720000029, 0.0700000003,           0.
    781,  0.730000019, 0.0700000003,           0.
    782,   0.74000001, 0.0700000003,           0.
    783,         0.75, 0.0700000003,           0.
    784,   0.75999999, 0.0700000003,           0.
    785,  0.769999981, 0.0700000003,           0.
    786,  0.779999971, 0.0700000003,           0.
    787,  0.790000021, 0.0700000003,           0.
    788,  0.800000012, 0.0700000003,           0.
    789,  0.810000002, 0.0700000003,           0.
    790,  0.819999993, 0.0700000003,           0.
    791,  0.829999983, 0.0700000003,           0.
    792,  0.839999974, 0.0700000003,           0.
    793,  0.850000024, 0.0700000003,           0.
    794,  0.860000014, 0.0700000003,           0.
    795,  0.870000005, 0.0700000003,           0.
    796,  0.879999995, 0.0700000003,           0.
    797,  0.889999986, 0.0700000003,           0.
    798,  0.899999976, 0.0700000003,           0.
    799,  0.910000026, 0.0700000003,           0.
    800,  0.920000017, 0.0700000003,           0.
    801,  0.930000007, 0.0700000003,           0.
    802,  0.939999998, 0.0700000003,           0.
    803,  0.949999988, 0.0700000003,           0.
    804,  0.959999979, 0.0700000003,           0.
    805,  0.970000029, 0.0700000003,           0.
    806,  0.980000019, 0.0700000003,           0.
    807,   0.99000001, 0.0700000003,           0.
    808,           1., 0.0700000003,           0.
    809,           0., 0.0799999982,           0.
    810, 0.00999999978, 0.0799999982,           0.
    811, 0.0199999996, 0.0799999982,           0.
    812, 0.0299999993, 0.0799999982,           0.
    813, 0.0399999991, 0.0799999982,           0.
    814, 0.0500000007, 0.0799999982,           0.
    815, 0.0599999987, 0.0799999982,           0.
    816, 0.0700000003, 0.0799999982,           0.
    817, 0.0799999982, 0.0799999982,           0.
    818, 0.0900000036, 0.0799999982,           0.
    819,  0.100000001, 0.0799999982,           0.
    820,  0.109999999, 0.0799999982,           0.
    821,  0.119999997, 0.0799999982,           0.
    822,  0.129999995, 0.0799999982,           0.
    823,  0.140000001, 0.0799999982,           0.
    824,  0.150000006, 0.0799999982,           0.
    825,  0.159999996, 0.0799999982,           0.
    826,  0.170000002, 0.0799999982,           0.
    827,  0.180000007, 0.0799999982,           0.
    828,  0.189999998, 0.0799999982,           0.
    829,  0.200000003, 0.0799999982,           0.
    830,  0.209999993, 0.0799999982,           0.
    831,  0.219999999, 0.0799999982,           0.
    832,  0.230000004, 0.0799999982,           0.
    833,  0.239999995, 0.0799999982,           0.
    834,         0.25, 0.0799999982,           0.
    835,   0.25999999, 0.0799999982,           0.
    836,  0.270000011, 0.0799999982,           0.
    837,  0.280000001, 0.0799999982,           0.
    838,  0.289999992, 0.0799999982,           0.
    839,  0.300000012, 0.0799999982,           0.
    840,  0.310000002, 0.0799999982,           0.
    841,  0.319999993, 0.0799999982,           0.
    842,  0.330000013, 0.0799999982,           0.
    843,  0.340000004, 0.0799999982,           0.
    844,  0.349999994, 0.0799999982,           0.
    845,  0.360000014, 0.0799999982,           0.
    846,  0.370000005, 0.0799999982,           0.
    847,  0.379999995, 0.0799999982,           0.
    848,  0.389999986, 0.0799999982,           0.
    849,  0.400000006, 0.0799999982,           0.
    850,  0.409999996, 0.0799999982,           0.
    851,  0.419999987, 0.0799999982,           0.
    852,  0.430000007, 0.0799999982,           0.
    853,  0.439999998, 0.0799999982,           0.
    854,  0.449999988, 0.0799999982,           0.
    855,  0.460000008, 0.0799999982,           0.
    856,  0.469999999, 0.0799999982,           0.
    857,  0.479999989, 0.0799999982,           0.
    858,   0.49000001, 0.0799999982,           0.
    859,          0.5, 0.0799999982,           0.
    860,   0.50999999, 0.0799999982,           0.
    861,  0.519999981, 0.0799999982,           0.
    862,  0.529999971, 0.0799999982,           0.
    863,  0.540000021, 0.0799999982,           0.
    864,  0.550000012, 0.0799999982,           0.
    865,  0.560000002, 0.0799999982,           0.
    866,  0.569999993, 0.0799999982,           0.
    867,  0.579999983, 0.0799999982,           0.
    868,  0.589999974, 0.0799999982,           0.
    869,  0.600000024, 0.0799999982,           0.
    870,  0.610000014, 0.0799999982,           0.
    871,  0.620000005, 0.0799999982,           0.
    872,  0.629999995, 0.0799999982,           0.
    873,  0.639999986, 0.0799999982,           0.
    874,  0.649999976, 0.0799999982,           0.
    875,  0.660000026, 0.0799999982,           0.
    876,  0.670000017, 0.0799999982,           0.
    877,  0.680000007, 0.0799999982,           0.
    878,  0.689999998, 0.0799999982,           0.
    879,  0.699999988, 0.0799999982,           0.
    880,  0.709999979, 0.0799999982,           0.
    881,  0.720000029, 0.0799999982,           0.
    882,  0.730000019, 0.0799999982,           0.
    883,   0.74000001, 0.0799999982,           0.
    884,         0.75, 0.0799999982,           0.
    885,   0.75999999, 0.0799999982,           0.
    886,  0.769999981, 0.0799999982,           0.
    887,  0.779999971, 0.0799999982,           0.
    888,  0.790000021, 0.0799999982,           0.
    889,  0.800000012, 0.0799999982,           0.
    890,  0.810000002, 0.0799999982,           0.
    891,  0.819999993, 0.0799999982,           0.
    892,  0.829999983, 0.0799999982,           0.
    893,  0.839999974, 0.0799999982,           0.
    894,  0.850000024, 0.0799999982,           0.
    895,  0.860000014, 0.0799999982,           0.
    896,  0.870000005, 0.0799999982,           0.
    897,  0.879999995, 0.0799999982,           0.
    898,  0.889999986, 0.0799999982,           0.
    899,  0.899999976, 0.0799999982,           0.
    900,  0.910000026, 0.0799999982,           0.
    901,  0.920000017, 0.0799999982,           0.
    902,  0.930000007, 0.0799999982,           0.
    903,  0.939999998, 0.0799999982,           0.
    904,  0.949999988, 0.0799999982,           0.
    905,  0.959999979, 0.0799999982,           0.
    906,  0.970000029, 0.0799999982,           0.
    907,  0.980000019, 0.0799999982,           0.
    908,   0.99000001, 0.0799999982,           0.
    909,           1., 0.0799999982,           0.
    910,           0., 0.0900000036,           0.
    911, 0.00999999978, 0.0900000036,           0.
    912, 0.0199999996, 0.0900000036,           0.
    913, 0.0299999993, 0.0900000036,           0.
    914, 0.0399999991, 0.0900000036,           0.
    915, 0.0500000007, 0.0900000036,           0.
    916, 0.0599999987, 0.0900000036,           0.
    917, 0.0700000003, 0.0900000036,           0.
    918, 0.0799999982, 0.0900000036,           0.
    919, 0.0900000036, 0.0900000036,           0.
    920,  0.100000001, 0.0900000036,           0.
    921,  0.109999999, 0.0900000036,           0.
    922,  0.119999997, 0.0900000036,           0.
    923,  0.129999995, 0.0900000036,           0.
    924,  0.140000001, 0.0900000036,           0.
    925,  0.150000006, 0.0900000036,           0.
    926,  0.159999996, 0.0900000036,           0.
    927,  0.170000002, 0.0900000036,           0.
    928,  0.180000007, 0.0900000036,           0.
    929,  0.189999998, 0.0900000036,           0.
    930,  0.200000003, 0.0900000036,           0.
    931,  0.209999993, 0.0900000036,           0.
    932,  0.219999999, 0.0900000036,           0.
    933,  0.230000004, 0.0900000036,           0.
    934,  0.239999995, 0.0900000036,           0.
    935,         0.25, 0.0900000036,           0.
    936,   0.25999999, 0.0900000036,           0.
    937,  0.270000011, 0.0900000036,           0.
    938,  0.280000001, 0.0900000036,           0.
    939,  0.289999992, 0.0900000036,           0.
    940,  0.300000012, 0.0900000036,           0.
    941,  0.310000002, 0.0900000036,           0.
    942,  0.319999993, 0.0900000036,           0.
    943,  0.330000013, 0.0900000036,           0.
    944,  0.340000004, 0.0900000036,           0.
    945,  0.349999994, 0.0900000036,           0.
    946,  0.360000014, 0.0900000036,           0.
    947,  0.370000005, 0.0900000036,           0.
    948,  0.379999995, 0.0900000036,           0.
    949,  0.389999986, 0.0900000036,           0.
    950,  0.400000006, 0.0900000036,           0.
    951,  0.409999996, 0.0900000036,           0.
    952,  0.419999987, 0.0900000036,           0.
    953,  0.430000007, 0.0900000036,           0.
    954,  0.439999998, 0.0900000036,           0.
    955,  0.449999988, 0.0900000036,           0.
    956,  0.460000008, 0.0900000036,           0.
    957,  0.469999999, 0.0900000036,           0.
    958,  0.479999989, 0.0900000036,           0.
    959,   0.49000001, 0.0900000036,           0.
    960,          0.5, 0.0900000036,           0.
    961,   0.50999999, 0.0900000036,           0.
    962,  0.519999981, 0.0900000036,           0.
    963,  0.529999971, 0.0900000036,           0.
    964,  0.540000021, 0.0900000036,           0.
    965,  0.550000012, 0.0900000036,           0.
    966,  0.560000002, 0.0900000036,           0.
    967,  0.569999993, 0.0900000036,           0.
    968,  0.579999983, 0.0900000036,           0.
    969,  0.589999974, 0.0900000036,           0.
    970,  0.600000024, 0.0900000036,           0.
    971,  0.610000014, 0.0900000036,           0.
    972,  0.620000005, 0.0900000036,           0.
    973,  0.629999995, 0.0900000036,           0.
    974,  0.639999986, 0.0900000036,           0.
    975,  0.649999976, 0.0900000036,           0.
    976,  0.660000026, 0.0900000036,           0.
    977,  0.670000017, 0.0900000036,           0.
    978,  0.680000007, 0.0900000036,           0.
    979,  0.689999998, 0.0900000036,           0.
    980,  0.699999988, 0.0900000036,           0.
    981,  0.709999979, 0.0900000036,           0.
    982,  0.720000029, 0.0900000036,           0.
    983,  0.730000019, 0.0900000036,           0.
    984,   0.74000001, 0.0900000036,           0.
    985,         0.75, 0.0900000036,           0.
    986,   0.75999999, 0.0900000036,           0.
    987,  0.769999981, 0.0900000036,           0.
    988,  0.779999971, 0.0900000036,           0.
    989,  0.790000021, 0.0900000036,           0.
    990,  0.800000012, 0.0900000036,           0.
    991,  0.810000002, 0.0900000036,           0.
    992,  0.819999993, 0.0900000036,           0.
    993,  0.829999983, 0.0900000036,           0.
    994,  0.839999974, 0.0900000036,           0.
    995,  0.850000024, 0.0900000036,           0.
    996,  0.860000014, 0.0900000036,           0.
    997,  0.870000005, 0.0900000036,           0.
    998,  0.879999995, 0.0900000036,           0.
    999,  0.889999986, 0.0900000036,           0.
   1000,  0.899999976, 0.0900000036,           0.
   1001,  0.910000026, 0.0900000036,           0.
   1002,  0.920000017, 0.0900000036,           0.
   1003,  0.930000007, 0.0900000036,           0.
   1004,  0.939999998, 0.0900000036,           0.
   1005,  0.949999988, 0.0900000036,           0.
   1006,  0.959999979, 0.0900000036,           0.
   1007,  0.970000029, 0.0900000036,           0.
   1008,  0.980000019, 0.0900000036,           0.
   1009,   0.99000001, 0.0900000036,           0.
   1010,           1., 0.0900000036,           0.
   1011,           0.,  0.100000001,           0.
   1012, 0.00999999978,  0.100000001,           0.
   1013, 0.0199999996,  0.100000001,           0.
   1014, 0.0299999993,  0.100000001,           0.
   1015, 0.0399999991,  0.100000001,           0.
   1016, 0.0500000007,  0.100000001,           0.
   1017, 0.0599999987,  0.100000001,           0.
   1018, 0.0700000003,  0.100000001,           0.
   1019, 0.0799999982,  0.100000001,           0.
   1020, 0.0900000036,  0.100000001,           0.
   1021,  0.100000001,  0.100000001,           0.
   1022,  0.109999999,  0.100000001,           0.
   1023,  0.119999997,  0.100000001,           0.
   1024,  0.129999995,  0.100000001,           0.
   1025,  0.140000001,  0.100000001,           0.
   1026,  0.150000006,  0.100000001,           0.
   1027,  0.159999996,  0.100000001,           0.
   1028,  0.170000002,  0.100000001,           0.
   1029,  0.180000007,  0.100000001,           0.
   1030,  0.189999998,  0.100000001,           0.
   1031,  0.200000003,  0.100000001,           0.
   1032,  0.209999993,  0.100000001,           0.
   1033,  0.219999999,  0.100000001,           0.
   1034,  0.230000004,  0.100000001,           0.
   1035,  0.239999995,  0.100000001,           0.
   1036,         0.25,  0.100000001,           0.
   1037,   0.25999999,  0.100000001,           0.
   1038,  0.270000011,  0.100000001,           0.
   1039,  0.280000001,  0.100000001,           0.
   1040,  0.289999992,  0.100000001,           0.
   1041,  0.300000012,  0.100000001,           0.
   1042,  0.310000002,  0.100000001,           0.
   1043,  0.319999993,  0.100000001,           0.
   1044,  0.330000013,  0.100000001,           0.
   1045,  0.340000004,  0.100000001,           0.
   1046,  0.349999994,  0.100000001,           0.
   1047,  0.360000014,  0.100000001,           0.
   1048,  0.370000005,  0.100000001,           0.
   1049,  0.379999995,  0.100000001,           0.
   1050,  0.389999986,  0.100000001,           0.
   1051,  0.400000006,  0.100000001,           0.
   1052,  0.409999996,  0.100000001,           0.
   1053,  0.419999987,  0.100000001,           0.
   1054,  0.430000007,  0.100000001,           0.
   1055,  0.439999998,  0.100000001,           0.
   1056,  0.449999988,  0.100000001,           0.
   1057,  0.460000008,  0.100000001,           0.
   1058,  0.469999999,  0.100000001,           0.
   1059,  0.479999989,  0.100000001,           0.
   1060,   0.49000001,  0.100000001,           0.
   1061,          0.5,  0.100000001,           0.
   1062,   0.50999999,  0.100000001,           0.
   1063,  0.519999981,  0.100000001,           0.
   1064,  0.529999971,  0.100000001,           0.
   1065,  0.540000021,  0.100000001,           0.
   1066,  0.550000012,  0.100000001,           0.
   1067,  0.560000002,  0.100000001,           0.
   1068,  0.569999993,  0.100000001,           0.
   1069,  0.579999983,  0.100000001,           0.
   1070,  0.589999974,  0.100000001,           0.
   1071,  0.600000024,  0.100000001,           0.
   1072,  0.610000014,  0.100000001,           0.
   1073,  0.620000005,  0.100000001,           0.
   1074,  0.629999995,  0.100000001,           0.
   1075,  0.639999986,  0.100000001,           0.
   1076,  0.649999976,  0.100000001,           0.
   1077,  0.660000026,  0.100000001,           0.
   1078,  0.670000017,  0.100000001,           0.
   1079,  0.680000007,  0.100000001,           0.
   1080,  0.689999998,  0.100000001,           0.
   1081,  0.699999988,  0.100000001,           0.
   1082,  0.709999979,  0.100000001,           0.
   1083,  0.720000029,  0.100000001,           0.
   1084,  0.730000019,  0.100000001,           0.
   1085,   0.74000001,  0.100000001,           0.
   1086,         0.75,  0.100000001,           0.
   1087,   0.75999999,  0.100000001,           0.
   1088,  0.769999981,  0.100000001,           0.
   1089,  0.779999971,  0.100000001,           0.
   1090,  0.790000021,  0.100000001,           0.
   1091,  0.800000012,  0.100000001,           0.
   1092,  0.810000002,  0.100000001,           0.
   1093,  0.819999993,  0.100000001,           0.
   1094,  0.829999983,  0.100000001,           0.
   1095,  0.839999974,  0.100000001,           0.
   1096,  0.850000024,  0.100000001,           0.
   1097,  0.860000014,  0.100000001,           0.
   1098,  0.870000005,  0.100000001,           0.
   1099,  0.879999995,  0.100000001,           0.
   1100,  0.889999986,  0.100000001,           0.
   1101,  0.899999976,  0.100000001,           0.
   1102,  0.910000026,  0.100000001,           0.
   1103,  0.920000017,  0.100000001,           0.
   1104,  0.930000007,  0.100000001,           0.
   1105,  0.939999998,  0.100000001,           0.
   1106,  0.949999988,  0.100000001,           0.
   1107,  0.959999979,  0.100000001,           0.
   1108,  0.970000029,  0.100000001,           0.
   1109,  0.980000019,  0.100000001,           0.
   1110,   0.99000001,  0.100000001,           0.
   1111,           1.,  0.100000001,           0.
*Element, type=S4RT
   1,    1,    2,  103,  102
   2,    2,    3,  104,  103
   3,    3,    4,  105,  104
   4,    4,    5,  106,  105
   5,    5,    6,  107,  106
   6,    6,    7,  108,  107
   7,    7,    8,  109,  108
   8,    8,    9,  110,  109
   9,    9,   10,  111,  110
  10,   10,   11,  112,  111
  11,   11,   12,  113,  112
  12,   12,   13,  114,  113
  13,   13,   14,  115,  114
  14,   14,   15,  116,  115
  15,   15,   16,  117,  116
  16,   16,   17,  118,  117
  17,   17,   18,  119,  118
  18,   18,   19,  120,  119
  19,   19,   20,  121,  120
  20,   20,   21,  122,  121
  21,   21,   22,  123,  122
  22,   22,   23,  124,  123
  23,   23,   24,  125,  124
  24,   24,   25,  126,  125
  25,   25,   26,  127,  126
  26,   26,   27,  128,  127
  27,   27,   28,  129,  128
  28,   28,   29,  130,  129
  29,   29,   30,  131,  130
  30,   30,   31,  132,  131
  31,   31,   32,  133,  132
  32,   32,   33,  134,  133
  33,   33,   34,  135,  134
  34,   34,   35,  136,  135
  35,   35,   36,  137,  136
  36,   36,   37,  138,  137
  37,   37,   38,  139,  138
  38,   38,   39,  140,  139
  39,   39,   40,  141,  140
  40,   40,   41,  142,  141
  41,   41,   42,  143,  142
  42,   42,   43,  144,  143
  43,   43,   44,  145,  144
  44,   44,   45,  146,  145
  45,   45,   46,  147,  146
  46,   46,   47,  148,  147
  47,   47,   48,  149,  148
  48,   48,   49,  150,  149
  49,   49,   50,  151,  150
  50,   50,   51,  152,  151
  51,   51,   52,  153,  152
  52,   52,   53,  154,  153
  53,   53,   54,  155,  154
  54,   54,   55,  156,  155
  55,   55,   56,  157,  156
  56,   56,   57,  158,  157
  57,   57,   58,  159,  158
  58,   58,   59,  160,  159
  59,   59,   60,  161,  160
  60,   60,   61,  162,  161
  61,   61,   62,  163,  162
  62,   62,   63,  164,  163
  63,   63,   64,  165,  164
  64,   64,   65,  166,  165
  65,   65,   66,  167,  166
  66,   66,   67,  168,  167
  67,   67,   68,  169,  168
  68,   68,   69,  170,  169
  69,   69,   70,  171,  170
  70,   70,   71,  172,  171
  71,   71,   72,  173,  172
  72,   72,   73,  174,  173
  73,   73,   74,  175,  174
  74,   74,   75,  176,  175
  75,   75,   76,  177,  176
  76,   76,   77,  178,  177
  77,   77,   78,  179,  178
  78,   78,   79,  180,  179
  79,   79,   80,  181,  180
  80,   80,   81,  182,  181
  81,   81,   82,  183,  182
  82,   82,   83,  184,  183
  83,   83,   84,  185,  184
  84,   84,   85,  186,  185
  85,   85,   86,  187,  186
  86,   86,   87,  188,  187
  87,   87,   88,  189,  188
  88,   88,   89,  190,  189
  89,   89,   90,  191,  190
  90,   90,   91,  192,  191
  91,   91,   92,  193,  192
  92,   92,   93,  194,  193
  93,   93,   94,  195,  194
  94,   94,   95,  196,  195
  95,   95,   96,  197,  196
  96,   96,   97,  198,  197
  97,   97,   98,  199,  198
  98,   98,   99,  200,  199
  99,   99,  100,  201,  200
 100,  100,  101,  202,  201
 101,  102,  103,  204,  203
 102,  103,  104,  205,  204
 103,  104,  105,  206,  205
 104,  105,  106,  207,  206
 105,  106,  107,  208,  207
 106,  107,  108,  209,  208
 107,  108,  109,  210,  209
 108,  109,  110,  211,  210
 109,  110,  111,  212,  211
 110,  111,  112,  213,  212
 111,  112,  113,  214,  213
 112,  113,  114,  215,  214
 113,  114,  115,  216,  215
 114,  115,  116,  217,  216
 115,  116,  117,  218,  217
 116,  117,  118,  219,  218
 117,  118,  119,  220,  219
 118,  119,  120,  221,  220
 119,  120,  121,  222,  221
 120,  121,  122,  223,  222
 121,  122,  123,  224,  223
 122,  123,  124,  225,  224
 123,  124,  125,  226,  225
 124,  125,  126,  227,  226
 125,  126,  127,  228,  227
 126,  127,  128,  229,  228
 127,  128,  129,  230,  229
 128,  129,  130,  231,  230
 129,  130,  131,  232,  231
 130,  131,  132,  233,  232
 131,  132,  133,  234,  233
 132,  133,  134,  235,  234
 133,  134,  135,  236,  235
 134,  135,  136,  237,  236
 135,  136,  137,  238,  237
 136,  137,  138,  239,  238
 137,  138,  139,  240,  239
 138,  139,  140,  241,  240
 139,  140,  141,  242,  241
 140,  141,  142,  243,  242
 141,  142,  143,  244,  243
 142,  143,  144,  245,  244
 143,  144,  145,  246,  245
 144,  145,  146,  247,  246
 145,  146,  147,  248,  247
 146,  147,  148,  249,  248
 147,  148,  149,  250,  249
 148,  149,  150,  251,  250
 149,  150,  151,  252,  251
 150,  151,  152,  253,  252
 151,  152,  153,  254,  253
 152,  153,  154,  255,  254
 153,  154,  155,  256,  255
 154,  155,  156,  257,  256
 155,  156,  157,  258,  257
 156,  157,  158,  259,  258
 157,  158,  159,  260,  259
 158,  159,  160,  261,  260
 159,  160,  161,  262,  261
 160,  161,  162,  263,  262
 161,  162,  163,  264,  263
 162,  163,  164,  265,  264
 163,  164,  165,  266,  265
 164,  165,  166,  267,  266
 165,  166,  167,  268,  267
 166,  167,  168,  269,  268
 167,  168,  169,  270,  269
 168,  169,  170,  271,  270
 169,  170,  171,  272,  271
 170,  171,  172,  273,  272
 171,  172,  173,  274,  273
 172,  173,  174,  275,  274
 173,  174,  175,  276,  275
 174,  175,  176,  277,  276
 175,  176,  177,  278,  277
 176,  177,  178,  279,  278
 177,  178,  179,  280,  279
 178,  179,  180,  281,  280
 179,  180,  181,  282,  281
 180,  181,  182,  283,  282
 181,  182,  183,  284,  283
 182,  183,  184,  285,  284
 183,  184,  185,  286,  285
 184,  185,  186,  287,  286
 185,  186,  187,  288,  287
 186,  187,  188,  289,  288
 187,  188,  189,  290,  289
 188,  189,  190,  291,  290
 189,  190,  191,  292,  291
 190,  191,  192,  293,  292
 191,  192,  193,  294,  293
 192,  193,  194,  295,  294
 193,  194,  195,  296,  295
 194,  195,  196,  297,  296
 195,  196,  197,  298,  297
 196,  197,  198,  299,  298
 197,  198,  199,  300,  299
 198,  199,  200,  301,  300
 199,  200,  201,  302,  301
 200,  201,  202,  303,  302
 201,  203,  204,  305,  304
 202,  204,  205,  306,  305
 203,  205,  206,  307,  306
 204,  206,  207,  308,  307
 205,  207,  208,  309,  308
 206,  208,  209,  310,  309
 207,  209,  210,  311,  310
 208,  210,  211,  312,  311
 209,  211,  212,  313,  312
 210,  212,  213,  314,  313
 211,  213,  214,  315,  314
 212,  214,  215,  316,  315
 213,  215,  216,  317,  316
 214,  216,  217,  318,  317
 215,  217,  218,  319,  318
 216,  218,  219,  320,  319
 217,  219,  220,  321,  320
 218,  220,  221,  322,  321
 219,  221,  222,  323,  322
 220,  222,  223,  324,  323
 221,  223,  224,  325,  324
 222,  224,  225,  326,  325
 223,  225,  226,  327,  326
 224,  226,  227,  328,  327
 225,  227,  228,  329,  328
 226,  228,  229,  330,  329
 227,  229,  230,  331,  330
 228,  230,  231,  332,  331
 229,  231,  232,  333,  332
 230,  232,  233,  334,  333
 231,  233,  234,  335,  334
 232,  234,  235,  336,  335
 233,  235,  236,  337,  336
 234,  236,  237,  338,  337
 235,  237,  238,  339,  338
 236,  238,  239,  340,  339
 237,  239,  240,  341,  340
 238,  240,  241,  342,  341
 239,  241,  242,  343,  342
 240,  242,  243,  344,  343
 241,  243,  244,  345,  344
 242,  244,  245,  346,  345
 243,  245,  246,  347,  346
 244,  246,  247,  348,  347
 245,  247,  248,  349,  348
 246,  248,  249,  350,  349
 247,  249,  250,  351,  350
 248,  250,  251,  352,  351
 249,  251,  252,  353,  352
 250,  252,  253,  354,  353
 251,  253,  254,  355,  354
 252,  254,  255,  356,  355
 253,  255,  256,  357,  356
 254,  256,  257,  358,  357
 255,  257,  258,  359,  358
 256,  258,  259,  360,  359
 257,  259,  260,  361,  360
 258,  260,  261,  362,  361
 259,  261,  262,  363,  362
 260,  262,  263,  364,  363
 261,  263,  264,  365,  364
 262,  264,  265,  366,  365
 263,  265,  266,  367,  366
 264,  266,  267,  368,  367
 265,  267,  268,  369,  368
 266,  268,  269,  370,  369
 267,  269,  270,  371,  370
 268,  270,  271,  372,  371
 269,  271,  272,  373,  372
 270,  272,  273,  374,  373
 271,  273,  274,  375,  374
 272,  274,  275,  376,  375
 273,  275,  276,  377,  376
 274,  276,  277,  378,  377
 275,  277,  278,  379,  378
 276,  278,  279,  380,  379
 277,  279,  280,  381,  380
 278,  280,  281,  382,  381
 279,  281,  282,  383,  382
 280,  282,  283,  384,  383
 281,  283,  284,  385,  384
 282,  284,  285,  386,  385
 283,  285,  286,  387,  386
 284,  286,  287,  388,  387
 285,  287,  288,  389,  388
 286,  288,  289,  390,  389
 287,  289,  290,  391,  390
 288,  290,  291,  392,  391
 289,  291,  292,  393,  392
 290,  292,  293,  394,  393
 291,  293,  294,  395,  394
 292,  294,  295,  396,  395
 293,  295,  296,  397,  396
 294,  296,  297,  398,  397
 295,  297,  298,  399,  398
 296,  298,  299,  400,  399
 297,  299,  300,  401,  400
 298,  300,  301,  402,  401
 299,  301,  302,  403,  402
 300,  302,  303,  404,  403
 301,  304,  305,  406,  405
 302,  305,  306,  407,  406
 303,  306,  307,  408,  407
 304,  307,  308,  409,  408
 305,  308,  309,  410,  409
 306,  309,  310,  411,  410
 307,  310,  311,  412,  411
 308,  311,  312,  413,  412
 309,  312,  313,  414,  413
 310,  313,  314,  415,  414
 311,  314,  315,  416,  415
 312,  315,  316,  417,  416
 313,  316,  317,  418,  417
 314,  317,  318,  419,  418
 315,  318,  319,  420,  419
 316,  319,  320,  421,  420
 317,  320,  321,  422,  421
 318,  321,  322,  423,  422
 319,  322,  323,  424,  423
 320,  323,  324,  425,  424
 321,  324,  325,  426,  425
 322,  325,  326,  427,  426
 323,  326,  327,  428,  427
 324,  327,  328,  429,  428
 325,  328,  329,  430,  429
 326,  329,  330,  431,  430
 327,  330,  331,  432,  431
 328,  331,  332,  433,  432
 329,  332,  333,  434,  433
 330,  333,  334,  435,  434
 331,  334,  335,  436,  435
 332,  335,  336,  437,  436
 333,  336,  337,  438,  437
 334,  337,  338,  439,  438
 335,  338,  339,  440,  439
 336,  339,  340,  441,  440
 337,  340,  341,  442,  441
 338,  341,  342,  443,  442
 339,  342,  343,  444,  443
 340,  343,  344,  445,  444
 341,  344,  345,  446,  445
 342,  345,  346,  447,  446
 343,  346,  347,  448,  447
 344,  347,  348,  449,  448
 345,  348,  349,  450,  449
 346,  349,  350,  451,  450
 347,  350,  351,  452,  451
 348,  351,  352,  453,  452
 349,  352,  353,  454,  453
 350,  353,  354,  455,  454
 351,  354,  355,  456,  455
 352,  355,  356,  457,  456
 353,  356,  357,  458,  457
 354,  357,  358,  459,  458
 355,  358,  359,  460,  459
 356,  359,  360,  461,  460
 357,  360,  361,  462,  461
 358,  361,  362,  463,  462
 359,  362,  363,  464,  463
 360,  363,  364,  465,  464
 361,  364,  365,  466,  465
 362,  365,  366,  467,  466
 363,  366,  367,  468,  467
 364,  367,  368,  469,  468
 365,  368,  369,  470,  469
 366,  369,  370,  471,  470
 367,  370,  371,  472,  471
 368,  371,  372,  473,  472
 369,  372,  373,  474,  473
 370,  373,  374,  475,  474
 371,  374,  375,  476,  475
 372,  375,  376,  477,  476
 373,  376,  377,  478,  477
 374,  377,  378,  479,  478
 375,  378,  379,  480,  479
 376,  379,  380,  481,  480
 377,  380,  381,  482,  481
 378,  381,  382,  483,  482
 379,  382,  383,  484,  483
 380,  383,  384,  485,  484
 381,  384,  385,  486,  485
 382,  385,  386,  487,  486
 383,  386,  387,  488,  487
 384,  387,  388,  489,  488
 385,  388,  389,  490,  489
 386,  389,  390,  491,  490
 387,  390,  391,  492,  491
 388,  391,  392,  493,  492
 389,  392,  393,  494,  493
 390,  393,  394,  495,  494
 391,  394,  395,  496,  495
 392,  395,  396,  497,  496
 393,  396,  397,  498,  497
 394,  397,  398,  499,  498
 395,  398,  399,  500,  499
 396,  399,  400,  501,  500
 397,  400,  401,  502,  501
 398,  401,  402,  503,  502
 399,  402,  403,  504,  503
 400,  403,  404,  505,  504
 401,  405,  406,  507,  506
 402,  406,  407,  508,  507
 403,  407,  408,  509,  508
 404,  408,  409,  510,  509
 405,  409,  410,  511,  510
 406,  410,  411,  512,  511
 407,  411,  412,  513,  512
 408,  412,  413,  514,  513
 409,  413,  414,  515,  514
 410,  414,  415,  516,  515
 411,  415,  416,  517,  516
 412,  416,  417,  518,  517
 413,  417,  418,  519,  518
 414,  418,  419,  520,  519
 415,  419,  420,  521,  520
 416,  420,  421,  522,  521
 417,  421,  422,  523,  522
 418,  422,  423,  524,  523
 419,  423,  424,  525,  524
 420,  424,  425,  526,  525
 421,  425,  426,  527,  526
 422,  426,  427,  528,  527
 423,  427,  428,  529,  528
 424,  428,  429,  530,  529
 425,  429,  430,  531,  530
 426,  430,  431,  532,  531
 427,  431,  432,  533,  532
 428,  432,  433,  534,  533
 429,  433,  434,  535,  534
 430,  434,  435,  536,  535
 431,  435,  436,  537,  536
 432,  436,  437,  538,  537
 433,  437,  438,  539,  538
 434,  438,  439,  540,  539
 435,  439,  440,  541,  540
 436,  440,  441,  542,  541
 437,  441,  442,  543,  542
 438,  442,  443,  544,  543
 439,  443,  444,  545,  544
 440,  444,  445,  546,  545
 441,  445,  446,  547,  546
 442,  446,  447,  548,  547
 443,  447,  448,  549,  548
 444,  448,  449,  550,  549
 445,  449,  450,  551,  550
 446,  450,  451,  552,  551
 447,  451,  452,  553,  552
 448,  452,  453,  554,  553
 449,  453,  454,  555,  554
 450,  454,  455,  556,  555
 451,  455,  456,  557,  556
 452,  456,  457,  558,  557
 453,  457,  458,  559,  558
 454,  458,  459,  560,  559
 455,  459,  460,  561,  560
 456,  460,  461,  562,  561
 457,  461,  462,  563,  562
 458,  462,  463,  564,  563
 459,  463,  464,  565,  564
 460,  464,  465,  566,  565
 461,  465,  466,  567,  566
 462,  466,  467,  568,  567
 463,  467,  468,  569,  568
 464,  468,  469,  570,  569
 465,  469,  470,  571,  570
 466,  470,  471,  572,  571
 467,  471,  472,  573,  572
 468,  472,  473,  574,  573
 469,  473,  474,  575,  574
 470,  474,  475,  576,  575
 471,  475,  476,  577,  576
 472,  476,  477,  578,  577
 473,  477,  478,  579,  578
 474,  478,  479,  580,  579
 475,  479,  480,  581,  580
 476,  480,  481,  582,  581
 477,  481,  482,  583,  582
 478,  482,  483,  584,  583
 479,  483,  484,  585,  584
 480,  484,  485,  586,  585
 481,  485,  486,  587,  586
 482,  486,  487,  588,  587
 483,  487,  488,  589,  588
 484,  488,  489,  590,  589
 485,  489,  490,  591,  590
 486,  490,  491,  592,  591
 487,  491,  492,  593,  592
 488,  492,  493,  594,  593
 489,  493,  494,  595,  594
 490,  494,  495,  596,  595
 491,  495,  496,  597,  596
 492,  496,  497,  598,  597
 493,  497,  498,  599,  598
 494,  498,  499,  600,  599
 495,  499,  500,  601,  600
 496,  500,  501,  602,  601
 497,  501,  502,  603,  602
 498,  502,  503,  604,  603
 499,  503,  504,  605,  604
 500,  504,  505,  606,  605
 501,  506,  507,  608,  607
 502,  507,  508,  609,  608
 503,  508,  509,  610,  609
 504,  509,  510,  611,  610
 505,  510,  511,  612,  611
 506,  511,  512,  613,  612
 507,  512,  513,  614,  613
 508,  513,  514,  615,  614
 509,  514,  515,  616,  615
 510,  515,  516,  617,  616
 511,  516,  517,  618,  617
 512,  517,  518,  619,  618
 513,  518,  519,  620,  619
 514,  519,  520,  621,  620
 515,  520,  521,  622,  621
 516,  521,  522,  623,  622
 517,  522,  523,  624,  623
 518,  523,  524,  625,  624
 519,  524,  525,  626,  625
 520,  525,  526,  627,  626
 521,  526,  527,  628,  627
 522,  527,  528,  629,  628
 523,  528,  529,  630,  629
 524,  529,  530,  631,  630
 525,  530,  531,  632,  631
 526,  531,  532,  633,  632
 527,  532,  533,  634,  633
 528,  533,  534,  635,  634
 529,  534,  535,  636,  635
 530,  535,  536,  637,  636
 531,  536,  537,  638,  637
 532,  537,  538,  639,  638
 533,  538,  539,  640,  639
 534,  539,  540,  641,  640
 535,  540,  541,  642,  641
 536,  541,  542,  643,  642
 537,  542,  543,  644,  643
 538,  543,  544,  645,  644
 539,  544,  545,  646,  645
 540,  545,  546,  647,  646
 541,  546,  547,  648,  647
 542,  547,  548,  649,  648
 543,  548,  549,  650,  649
 544,  549,  550,  651,  650
 545,  550,  551,  652,  651
 546,  551,  552,  653,  652
 547,  552,  553,  654,  653
 548,  553,  554,  655,  654
 549,  554,  555,  656,  655
 550,  555,  556,  657,  656
 551,  556,  557,  658,  657
 552,  557,  558,  659,  658
 553,  558,  559,  660,  659
 554,  559,  560,  661,  660
 555,  560,  561,  662,  661
 556,  561,  562,  663,  662
 557,  562,  563,  664,  663
 558,  563,  564,  665,  664
 559,  564,  565,  666,  665
 560,  565,  566,  667,  666
 561,  566,  567,  668,  667
 562,  567,  568,  669,  668
 563,  568,  569,  670,  669
 564,  569,  570,  671,  670
 565,  570,  571,  672,  671
 566,  571,  572,  673,  672
 567,  572,  573,  674,  673
 568,  573,  574,  675,  674
 569,  574,  575,  676,  675
 570,  575,  576,  677,  676
 571,  576,  577,  678,  677
 572,  577,  578,  679,  678
 573,  578,  579,  680,  679
 574,  579,  580,  681,  680
 575,  580,  581,  682,  681
 576,  581,  582,  683,  682
 577,  582,  583,  684,  683
 578,  583,  584,  685,  684
 579,  584,  585,  686,  685
 580,  585,  586,  687,  686
 581,  586,  587,  688,  687
 582,  587,  588,  689,  688
 583,  588,  589,  690,  689
 584,  589,  590,  691,  690
 585,  590,  591,  692,  691
 586,  591,  592,  693,  692
 587,  592,  593,  694,  693
 588,  593,  594,  695,  694
 589,  594,  595,  696,  695
 590,  595,  596,  697,  696
 591,  596,  597,  698,  697
 592,  597,  598,  699,  698
 593,  598,  599,  700,  699
 594,  599,  600,  701,  700
 595,  600,  601,  702,  701
 596,  601,  602,  703,  702
 597,  602,  603,  704,  703
 598,  603,  604,  705,  704
 599,  604,  605,  706,  705
 600,  605,  606,  707,  706
 601,  607,  608,  709,  708
 602,  608,  609,  710,  709
 603,  609,  610,  711,  710
 604,  610,  611,  712,  711
 605,  611,  612,  713,  712
 606,  612,  613,  714,  713
 607,  613,  614,  715,  714
 608,  614,  615,  716,  715
 609,  615,  616,  717,  716
 610,  616,  617,  718,  717
 611,  617,  618,  719,  718
 612,  618,  619,  720,  719
 613,  619,  620,  721,  720
 614,  620,  621,  722,  721
 615,  621,  622,  723,  722
 616,  622,  623,  724,  723
 617,  623,  624,  725,  724
 618,  624,  625,  726,  725
 619,  625,  626,  727,  726
 620,  626,  627,  728,  727
 621,  627,  628,  729,  728
 622,  628,  629,  730,  729
 623,  629,  630,  731,  730
 624,  630,  631,  732,  731
 625,  631,  632,  733,  732
 626,  632,  633,  734,  733
 627,  633,  634,  735,  734
 628,  634,  635,  736,  735
 629,  635,  636,  737,  736
 630,  636,  637,  738,  737
 631,  637,  638,  739,  738
 632,  638,  639,  740,  739
 633,  639,  640,  741,  740
 634,  640,  641,  742,  741
 635,  641,  642,  743,  742
 636,  642,  643,  744,  743
 637,  643,  644,  745,  744
 638,  644,  645,  746,  745
 639,  645,  646,  747,  746
 640,  646,  647,  748,  747
 641,  647,  648,  749,  748
 642,  648,  649,  750,  749
 643,  649,  650,  751,  750
 644,  650,  651,  752,  751
 645,  651,  652,  753,  752
 646,  652,  653,  754,  753
 647,  653,  654,  755,  754
 648,  654,  655,  756,  755
 649,  655,  656,  757,  756
 650,  656,  657,  758,  757
 651,  657,  658,  759,  758
 652,  658,  659,  760,  759
 653,  659,  660,  761,  760
 654,  660,  661,  762,  761
 655,  661,  662,  763,  762
 656,  662,  663,  764,  763
 657,  663,  664,  765,  764
 658,  664,  665,  766,  765
 659,  665,  666,  767,  766
 660,  666,  667,  768,  767
 661,  667,  668,  769,  768
 662,  668,  669,  770,  769
 663,  669,  670,  771,  770
 664,  670,  671,  772,  771
 665,  671,  672,  773,  772
 666,  672,  673,  774,  773
 667,  673,  674,  775,  774
 668,  674,  675,  776,  775
 669,  675,  676,  777,  776
 670,  676,  677,  778,  777
 671,  677,  678,  779,  778
 672,  678,  679,  780,  779
 673,  679,  680,  781,  780
 674,  680,  681,  782,  781
 675,  681,  682,  783,  782
 676,  682,  683,  784,  783
 677,  683,  684,  785,  784
 678,  684,  685,  786,  785
 679,  685,  686,  787,  786
 680,  686,  687,  788,  787
 681,  687,  688,  789,  788
 682,  688,  689,  790,  789
 683,  689,  690,  791,  790
 684,  690,  691,  792,  791
 685,  691,  692,  793,  792
 686,  692,  693,  794,  793
 687,  693,  694,  795,  794
 688,  694,  695,  796,  795
 689,  695,  696,  797,  796
 690,  696,  697,  798,  797
 691,  697,  698,  799,  798
 692,  698,  699,  800,  799
 693,  699,  700,  801,  800
 694,  700,  701,  802,  801
 695,  701,  702,  803,  802
 696,  702,  703,  804,  803
 697,  703,  704,  805,  804
 698,  704,  705,  806,  805
 699,  705,  706,  807,  806
 700,  706,  707,  808,  807
 701,  708,  709,  810,  809
 702,  709,  710,  811,  810
 703,  710,  711,  812,  811
 704,  711,  712,  813,  812
 705,  712,  713,  814,  813
 706,  713,  714,  815,  814
 707,  714,  715,  816,  815
 708,  715,  716,  817,  816
 709,  716,  717,  818,  817
 710,  717,  718,  819,  818
 711,  718,  719,  820,  819
 712,  719,  720,  821,  820
 713,  720,  721,  822,  821
 714,  721,  722,  823,  822
 715,  722,  723,  824,  823
 716,  723,  724,  825,  824
 717,  724,  725,  826,  825
 718,  725,  726,  827,  826
 719,  726,  727,  828,  827
 720,  727,  728,  829,  828
 721,  728,  729,  830,  829
 722,  729,  730,  831,  830
 723,  730,  731,  832,  831
 724,  731,  732,  833,  832
 725,  732,  733,  834,  833
 726,  733,  734,  835,  834
 727,  734,  735,  836,  835
 728,  735,  736,  837,  836
 729,  736,  737,  838,  837
 730,  737,  738,  839,  838
 731,  738,  739,  840,  839
 732,  739,  740,  841,  840
 733,  740,  741,  842,  841
 734,  741,  742,  843,  842
 735,  742,  743,  844,  843
 736,  743,  744,  845,  844
 737,  744,  745,  846,  845
 738,  745,  746,  847,  846
 739,  746,  747,  848,  847
 740,  747,  748,  849,  848
 741,  748,  749,  850,  849
 742,  749,  750,  851,  850
 743,  750,  751,  852,  851
 744,  751,  752,  853,  852
 745,  752,  753,  854,  853
 746,  753,  754,  855,  854
 747,  754,  755,  856,  855
 748,  755,  756,  857,  856
 749,  756,  757,  858,  857
 750,  757,  758,  859,  858
 751,  758,  759,  860,  859
 752,  759,  760,  861,  860
 753,  760,  761,  862,  861
 754,  761,  762,  863,  862
 755,  762,  763,  864,  863
 756,  763,  764,  865,  864
 757,  764,  765,  866,  865
 758,  765,  766,  867,  866
 759,  766,  767,  868,  867
 760,  767,  768,  869,  868
 761,  768,  769,  870,  869
 762,  769,  770,  871,  870
 763,  770,  771,  872,  871
 764,  771,  772,  873,  872
 765,  772,  773,  874,  873
 766,  773,  774,  875,  874
 767,  774,  775,  876,  875
 768,  775,  776,  877,  876
 769,  776,  777,  878,  877
 770,  777,  778,  879,  878
 771,  778,  779,  880,  879
 772,  779,  780,  881,  880
 773,  780,  781,  882,  881
 774,  781,  782,  883,  882
 775,  782,  783,  884,  883
 776,  783,  784,  885,  884
 777,  784,  785,  886,  885
 778,  785,  786,  887,  886
 779,  786,  787,  888,  887
 780,  787,  788,  889,  888
 781,  788,  789,  890,  889
 782,  789,  790,  891,  890
 783,  790,  791,  892,  891
 784,  791,  792,  893,  892
 785,  792,  793,  894,  893
 786,  793,  794,  895,  894
 787,  794,  795,  896,  895
 788,  795,  796,  897,  896
 789,  796,  797,  898,  897
 790,  797,  798,  899,  898
 791,  798,  799,  900,  899
 792,  799,  800,  901,  900
 793,  800,  801,  902,  901
 794,  801,  802,  903,  902
 795,  802,  803,  904,  903
 796,  803,  804,  905,  904
 797,  804,  805,  906,  905
 798,  805,  806,  907,  906
 799,  806,  807,  908,  907
 800,  807,  808,  909,  908
 801,  809,  810,  911,  910
 802,  810,  811,  912,  911
 803,  811,  812,  913,  912
 804,  812,  813,  914,  913
 805,  813,  814,  915,  914
 806,  814,  815,  916,  915
 807,  815,  816,  917,  916
 808,  816,  817,  918,  917
 809,  817,  818,  919,  918
 810,  818,  819,  920,  919
 811,  819,  820,  921,  920
 812,  820,  821,  922,  921
 813,  821,  822,  923,  922
 814,  822,  823,  924,  923
 815,  823,  824,  925,  924
 816,  824,  825,  926,  925
 817,  825,  826,  927,  926
 818,  826,  827,  928,  927
 819,  827,  828,  929,  928
 820,  828,  829,  930,  929
 821,  829,  830,  931,  930
 822,  830,  831,  932,  931
 823,  831,  832,  933,  932
 824,  832,  833,  934,  933
 825,  833,  834,  935,  934
 826,  834,  835,  936,  935
 827,  835,  836,  937,  936
 828,  836,  837,  938,  937
 829,  837,  838,  939,  938
 830,  838,  839,  940,  939
 831,  839,  840,  941,  940
 832,  840,  841,  942,  941
 833,  841,  842,  943,  942
 834,  842,  843,  944,  943
 835,  843,  844,  945,  944
 836,  844,  845,  946,  945
 837,  845,  846,  947,  946
 838,  846,  847,  948,  947
 839,  847,  848,  949,  948
 840,  848,  849,  950,  949
 841,  849,  850,  951,  950
 842,  850,  851,  952,  951
 843,  851,  852,  953,  952
 844,  852,  853,  954,  953
 845,  853,  854,  955,  954
 846,  854,  855,  956,  955
 847,  855,  856,  957,  956
 848,  856,  857,  958,  957
 849,  857,  858,  959,  958
 850,  858,  859,  960,  959
 851,  859,  860,  961,  960
 852,  860,  861,  962,  961
 853,  861,  862,  963,  962
 854,  862,  863,  964,  963
 855,  863,  864,  965,  964
 856,  864,  865,  966,  965
 857,  865,  866,  967,  966
 858,  866,  867,  968,  967
 859,  867,  868,  969,  968
 860,  868,  869,  970,  969
 861,  869,  870,  971,  970
 862,  870,  871,  972,  971
 863,  871,  872,  973,  972
 864,  872,  873,  974,  973
 865,  873,  874,  975,  974
 866,  874,  875,  976,  975
 867,  875,  876,  977,  976
 868,  876,  877,  978,  977
 869,  877,  878,  979,  978
 870,  878,  879,  980,  979
 871,  879,  880,  981,  980
 872,  880,  881,  982,  981
 873,  881,  882,  983,  982
 874,  882,  883,  984,  983
 875,  883,  884,  985,  984
 876,  884,  885,  986,  985
 877,  885,  886,  987,  986
 878,  886,  887,  988,  987
 879,  887,  888,  989,  988
 880,  888,  889,  990,  989
 881,  889,  890,  991,  990
 882,  890,  891,  992,  991
 883,  891,  892,  993,  992
 884,  892,  893,  994,  993
 885,  893,  894,  995,  994
 886,  894,  895,  996,  995
 887,  895,  896,  997,  996
 888,  896,  897,  998,  997
 889,  897,  898,  999,  998
 890,  898,  899, 1000,  999
 891,  899,  900, 1001, 1000
 892,  900,  901, 1002, 1001
 893,  901,  902, 1003, 1002
 894,  902,  903, 1004, 1003
 895,  903,  904, 1005, 1004
 896,  904,  905, 1006, 1005
 897,  905,  906, 1007, 1006
 898,  906,  907, 1008, 1007
 899,  907,  908, 1009, 1008
 900,  908,  909, 1010, 1009
 901,  910,  911, 1012, 1011
 902,  911,  912, 1013, 1012
 903,  912,  913, 1014, 1013
 904,  913,  914, 1015, 1014
 905,  914,  915, 1016, 1015
 906,  915,  916, 1017, 1016
 907,  916,  917, 1018, 1017
 908,  917,  918, 1019, 1018
 909,  918,  919, 1020, 1019
 910,  919,  920, 1021, 1020
 911,  920,  921, 1022, 1021
 912,  921,  922, 1023, 1022
 913,  922,  923, 1024, 1023
 914,  923,  924, 1025, 1024
 915,  924,  925, 1026, 1025
 916,  925,  926, 1027, 1026
 917,  926,  927, 1028, 1027
 918,  927,  928, 1029, 1028
 919,  928,  929, 1030, 1029
 920,  929,  930, 1031, 1030
 921,  930,  931, 1032, 1031
 922,  931,  932, 1033, 1032
 923,  932,  933, 1034, 1033
 924,  933,  934, 1035, 1034
 925,  934,  935, 1036, 1035
 926,  935,  936, 1037, 1036
 927,  936,  937, 1038, 1037
 928,  937,  938, 1039, 1038
 929,  938,  939, 1040, 1039
 930,  939,  940, 1041, 1040
 931,  940,  941, 1042, 1041
 932,  941,  942, 1043, 1042
 933,  942,  943, 1044, 1043
 934,  943,  944, 1045, 1044
 935,  944,  945, 1046, 1045
 936,  945,  946, 1047, 1046
 937,  946,  947, 1048, 1047
 938,  947,  948, 1049, 1048
 939,  948,  949, 1050, 1049
 940,  949,  950, 1051, 1050
 941,  950,  951, 1052, 1051
 942,  951,  952, 1053, 1052
 943,  952,  953, 1054, 1053
 944,  953,  954, 1055, 1054
 945,  954,  955, 1056, 1055
 946,  955,  956, 1057, 1056
 947,  956,  957, 1058, 1057
 948,  957,  958, 1059, 1058
 949,  958,  959, 1060, 1059
 950,  959,  960, 1061, 1060
 951,  960,  961, 1062, 1061
 952,  961,  962, 1063, 1062
 953,  962,  963, 1064, 1063
 954,  963,  964, 1065, 1064
 955,  964,  965, 1066, 1065
 956,  965,  966, 1067, 1066
 957,  966,  967, 1068, 1067
 958,  967,  968, 1069, 1068
 959,  968,  969, 1070, 1069
 960,  969,  970, 1071, 1070
 961,  970,  971, 1072, 1071
 962,  971,  972, 1073, 1072
 963,  972,  973, 1074, 1073
 964,  973,  974, 1075, 1074
 965,  974,  975, 1076, 1075
 966,  975,  976, 1077, 1076
 967,  976,  977, 1078, 1077
 968,  977,  978, 1079, 1078
 969,  978,  979, 1080, 1079
 970,  979,  980, 1081, 1080
 971,  980,  981, 1082, 1081
 972,  981,  982, 1083, 1082
 973,  982,  983, 1084, 1083
 974,  983,  984, 1085, 1084
 975,  984,  985, 1086, 1085
 976,  985,  986, 1087, 1086
 977,  986,  987, 1088, 1087
 978,  987,  988, 1089, 1088
 979,  988,  989, 1090, 1089
 980,  989,  990, 1091, 1090
 981,  990,  991, 1092, 1091
 982,  991,  992, 1093, 1092
 983,  992,  993, 1094, 1093
 984,  993,  994, 1095, 1094
 985,  994,  995, 1096, 1095
 986,  995,  996, 1097, 1096
 987,  996,  997, 1098, 1097
 988,  997,  998, 1099, 1098
 989,  998,  999, 1100, 1099
 990,  999, 1000, 1101, 1100
 991, 1000, 1001, 1102, 1101
 992, 1001, 1002, 1103, 1102
 993, 1002, 1003, 1104, 1103
 994, 1003, 1004, 1105, 1104
 995, 1004, 1005, 1106, 1105
 996, 1005, 1006, 1107, 1106
 997, 1006, 1007, 1108, 1107
 998, 1007, 1008, 1109, 1108
 999, 1008, 1009, 1110, 1109
1000, 1009, 1010, 1111, 1110
*Nset, nset=Set-1, generate
    1,  1111,     1
*Elset, elset=Set-1, generate
    1,  1000,     1
** Section: CompositeSection-1
*Shell Section, elset=Set-1, composite
0.0025, 3, Aluminum, 0., a
0.0025, 3, FakeSMA, 0., b
*End Part
**  
**
** ASSEMBLY
**
*Assembly, name=Assembly
**  
*Instance, name=SMAStrip_(Nitinol), part=SMAStrip_(Nitinol)
*End Instance
**  
*Nset, nset=Fixed-Set, instance=SMAStrip_(Nitinol), generate
    1,  1011,   101
*Elset, elset=Fixed-Set, instance=SMAStrip_(Nitinol), generate
   1,  901,  100
*Nset, nset=Set-Temp, instance=SMAStrip_(Nitinol), generate
    1,  1111,     1
*Elset, elset=Set-Temp, instance=SMAStrip_(Nitinol), generate
    1,  1000,     1
*Elset, elset=_All-Surfaces_SPOS, internal, instance=SMAStrip_(Nitinol), generate
    1,  1000,     1
*Surface, type=ELEMENT, name=All-Surfaces
_All-Surfaces_SPOS, SPOS
*End Assembly
*Amplitude, name=InstantVacuum
             0.,              1.,              4.,              1.
** 
** MATERIALS
** 
*Material, name=Aluminum
*Conductivity
100.,
*Density
2300.,
*Elastic
 7e+10, 0.3
*Expansion
0.,
*Specific Heat
900.,
*Material, name=FakeSMA
*Conductivity
50.,
*Density
6450.,
*Elastic
 9e+10, 0.3
*Expansion
 0.0025,
*Specific Heat
800.,
** 
** PHYSICAL CONSTANTS
** 
*Physical Constants, absolute zero=0., stefan boltzmann=5.67e-08
** 
** PREDEFINED FIELDS
** 
** Name: Temp0   Type: Temperature
*Initial Conditions, type=TEMPERATURE
Set-Temp, 300., 300., 300., 300., 300.
** ----------------------------------------------------------------
** 
** STEP: Heat_Comparison
** 
*Step, name=Heat_Comparison, nlgeom=YES, inc=200
*Coupled Temperature-displacement, creep=none, deltmx=5.
0.1, 180., 4e-05, 5.
** 
** BOUNDARY CONDITIONS
** 
** Name: FixEdge Type: Symmetry/Antisymmetry/Encastre
*Boundary
Fixed-Set, ENCASTRE
** 
** LOADS
** 
** Name: Load_Comparison   Type: Surface heat flux Using Field: Flux_Field_Comparison
*Dflux
SMAStrip_(Nitinol).1, SPOS, 510.375
SMAStrip_(Nitinol).2, SPOS, 510.375
SMAStrip_(Nitinol).3, SPOS, 510.375
SMAStrip_(Nitinol).4, SPOS, 510.375
SMAStrip_(Nitinol).5, SPOS, 510.375
SMAStrip_(Nitinol).6, SPOS, 510.375
SMAStrip_(Nitinol).7, SPOS, 510.375
SMAStrip_(Nitinol).8, SPOS, 510.375
SMAStrip_(Nitinol).9, SPOS, 510.375
SMAStrip_(Nitinol).10, SPOS, 510.375
SMAStrip_(Nitinol).11, SPOS, 510.375
SMAStrip_(Nitinol).12, SPOS, 510.375
SMAStrip_(Nitinol).13, SPOS, 510.375
SMAStrip_(Nitinol).14, SPOS, 510.375
SMAStrip_(Nitinol).15, SPOS, 510.375
SMAStrip_(Nitinol).16, SPOS, 510.375
SMAStrip_(Nitinol).17, SPOS, 510.375
SMAStrip_(Nitinol).18, SPOS, 510.375
SMAStrip_(Nitinol).19, SPOS, 510.375
SMAStrip_(Nitinol).20, SPOS, 510.375
SMAStrip_(Nitinol).21, SPOS, 510.375
SMAStrip_(Nitinol).22, SPOS, 510.375
SMAStrip_(Nitinol).23, SPOS, 510.375
SMAStrip_(Nitinol).24, SPOS, 510.375
SMAStrip_(Nitinol).25, SPOS, 510.375
SMAStrip_(Nitinol).26, SPOS, 510.375
SMAStrip_(Nitinol).27, SPOS, 510.375
SMAStrip_(Nitinol).28, SPOS, 510.375
SMAStrip_(Nitinol).29, SPOS, 510.375
SMAStrip_(Nitinol).30, SPOS, 510.375
SMAStrip_(Nitinol).31, SPOS, 510.375
SMAStrip_(Nitinol).32, SPOS, 510.375
SMAStrip_(Nitinol).33, SPOS, 510.375
SMAStrip_(Nitinol).34, SPOS, 510.375
SMAStrip_(Nitinol).35, SPOS, 510.375
SMAStrip_(Nitinol).36, SPOS, 510.375
SMAStrip_(Nitinol).37, SPOS, 510.375
SMAStrip_(Nitinol).38, SPOS, 510.375
SMAStrip_(Nitinol).39, SPOS, 510.375
SMAStrip_(Nitinol).40, SPOS, 510.375
SMAStrip_(Nitinol).41, SPOS, 510.375
SMAStrip_(Nitinol).42, SPOS, 510.375
SMAStrip_(Nitinol).43, SPOS, 510.375
SMAStrip_(Nitinol).44, SPOS, 510.375
SMAStrip_(Nitinol).45, SPOS, 510.375
SMAStrip_(Nitinol).46, SPOS, 510.375
SMAStrip_(Nitinol).47, SPOS, 510.375
SMAStrip_(Nitinol).48, SPOS, 510.375
SMAStrip_(Nitinol).49, SPOS, 510.375
SMAStrip_(Nitinol).50, SPOS, 510.375
SMAStrip_(Nitinol).51, SPOS, 510.375
SMAStrip_(Nitinol).52, SPOS, 510.375
SMAStrip_(Nitinol).53, SPOS, 510.375
SMAStrip_(Nitinol).54, SPOS, 510.375
SMAStrip_(Nitinol).55, SPOS, 510.375
SMAStrip_(Nitinol).56, SPOS, 510.375
SMAStrip_(Nitinol).57, SPOS, 510.375
SMAStrip_(Nitinol).58, SPOS, 510.375
SMAStrip_(Nitinol).59, SPOS, 510.375
SMAStrip_(Nitinol).60, SPOS, 510.375
SMAStrip_(Nitinol).61, SPOS, 510.375
SMAStrip_(Nitinol).62, SPOS, 510.375
SMAStrip_(Nitinol).63, SPOS, 510.375
SMAStrip_(Nitinol).64, SPOS, 510.375
SMAStrip_(Nitinol).65, SPOS, 510.375
SMAStrip_(Nitinol).66, SPOS, 510.375
SMAStrip_(Nitinol).67, SPOS, 510.375
SMAStrip_(Nitinol).68, SPOS, 510.375
SMAStrip_(Nitinol).69, SPOS, 510.375
SMAStrip_(Nitinol).70, SPOS, 510.375
SMAStrip_(Nitinol).71, SPOS, 510.375
SMAStrip_(Nitinol).72, SPOS, 510.375
SMAStrip_(Nitinol).73, SPOS, 510.375
SMAStrip_(Nitinol).74, SPOS, 510.375
SMAStrip_(Nitinol).75, SPOS, 510.375
SMAStrip_(Nitinol).76, SPOS, 510.375
SMAStrip_(Nitinol).77, SPOS, 510.375
SMAStrip_(Nitinol).78, SPOS, 510.375
SMAStrip_(Nitinol).79, SPOS, 510.375
SMAStrip_(Nitinol).80, SPOS, 510.375
SMAStrip_(Nitinol).81, SPOS, 510.375
SMAStrip_(Nitinol).82, SPOS, 510.375
SMAStrip_(Nitinol).83, SPOS, 510.375
SMAStrip_(Nitinol).84, SPOS, 510.375
SMAStrip_(Nitinol).85, SPOS, 510.375
SMAStrip_(Nitinol).86, SPOS, 510.375
SMAStrip_(Nitinol).87, SPOS, 510.375
SMAStrip_(Nitinol).88, SPOS, 510.375
SMAStrip_(Nitinol).89, SPOS, 510.375
SMAStrip_(Nitinol).90, SPOS, 510.375
SMAStrip_(Nitinol).91, SPOS, 510.375
SMAStrip_(Nitinol).92, SPOS, 510.375
SMAStrip_(Nitinol).93, SPOS, 510.375
SMAStrip_(Nitinol).94, SPOS, 510.375
SMAStrip_(Nitinol).95, SPOS, 510.375
SMAStrip_(Nitinol).96, SPOS, 510.375
SMAStrip_(Nitinol).97, SPOS, 510.375
SMAStrip_(Nitinol).98, SPOS, 510.375
SMAStrip_(Nitinol).99, SPOS, 510.375
SMAStrip_(Nitinol).100, SPOS, 510.375
SMAStrip_(Nitinol).101, SPOS, 510.375
SMAStrip_(Nitinol).102, SPOS, 510.375
SMAStrip_(Nitinol).103, SPOS, 510.375
SMAStrip_(Nitinol).104, SPOS, 510.375
SMAStrip_(Nitinol).105, SPOS, 510.375
SMAStrip_(Nitinol).106, SPOS, 510.375
SMAStrip_(Nitinol).107, SPOS, 510.375
SMAStrip_(Nitinol).108, SPOS, 510.375
SMAStrip_(Nitinol).109, SPOS, 510.375
SMAStrip_(Nitinol).110, SPOS, 510.375
SMAStrip_(Nitinol).111, SPOS, 510.375
SMAStrip_(Nitinol).112, SPOS, 510.375
SMAStrip_(Nitinol).113, SPOS, 510.375
SMAStrip_(Nitinol).114, SPOS, 510.375
SMAStrip_(Nitinol).115, SPOS, 510.375
SMAStrip_(Nitinol).116, SPOS, 510.375
SMAStrip_(Nitinol).117, SPOS, 510.375
SMAStrip_(Nitinol).118, SPOS, 510.375
SMAStrip_(Nitinol).119, SPOS, 510.375
SMAStrip_(Nitinol).120, SPOS, 510.375
SMAStrip_(Nitinol).121, SPOS, 510.375
SMAStrip_(Nitinol).122, SPOS, 510.375
SMAStrip_(Nitinol).123, SPOS, 510.375
SMAStrip_(Nitinol).124, SPOS, 510.375
SMAStrip_(Nitinol).125, SPOS, 510.375
SMAStrip_(Nitinol).126, SPOS, 510.375
SMAStrip_(Nitinol).127, SPOS, 510.375
SMAStrip_(Nitinol).128, SPOS, 510.375
SMAStrip_(Nitinol).129, SPOS, 510.375
SMAStrip_(Nitinol).130, SPOS, 510.375
SMAStrip_(Nitinol).131, SPOS, 510.375
SMAStrip_(Nitinol).132, SPOS, 510.375
SMAStrip_(Nitinol).133, SPOS, 510.375
SMAStrip_(Nitinol).134, SPOS, 510.375
SMAStrip_(Nitinol).135, SPOS, 510.375
SMAStrip_(Nitinol).136, SPOS, 510.375
SMAStrip_(Nitinol).137, SPOS, 510.375
SMAStrip_(Nitinol).138, SPOS, 510.375
SMAStrip_(Nitinol).139, SPOS, 510.375
SMAStrip_(Nitinol).140, SPOS, 510.375
SMAStrip_(Nitinol).141, SPOS, 510.375
SMAStrip_(Nitinol).142, SPOS, 510.375
SMAStrip_(Nitinol).143, SPOS, 510.375
SMAStrip_(Nitinol).144, SPOS, 510.375
SMAStrip_(Nitinol).145, SPOS, 510.375
SMAStrip_(Nitinol).146, SPOS, 510.375
SMAStrip_(Nitinol).147, SPOS, 510.375
SMAStrip_(Nitinol).148, SPOS, 510.375
SMAStrip_(Nitinol).149, SPOS, 510.375
SMAStrip_(Nitinol).150, SPOS, 510.375
SMAStrip_(Nitinol).151, SPOS, 510.375
SMAStrip_(Nitinol).152, SPOS, 510.375
SMAStrip_(Nitinol).153, SPOS, 510.375
SMAStrip_(Nitinol).154, SPOS, 510.375
SMAStrip_(Nitinol).155, SPOS, 510.375
SMAStrip_(Nitinol).156, SPOS, 510.375
SMAStrip_(Nitinol).157, SPOS, 510.375
SMAStrip_(Nitinol).158, SPOS, 510.375
SMAStrip_(Nitinol).159, SPOS, 510.375
SMAStrip_(Nitinol).160, SPOS, 510.375
SMAStrip_(Nitinol).161, SPOS, 510.375
SMAStrip_(Nitinol).162, SPOS, 510.375
SMAStrip_(Nitinol).163, SPOS, 510.375
SMAStrip_(Nitinol).164, SPOS, 510.375
SMAStrip_(Nitinol).165, SPOS, 510.375
SMAStrip_(Nitinol).166, SPOS, 510.375
SMAStrip_(Nitinol).167, SPOS, 510.375
SMAStrip_(Nitinol).168, SPOS, 510.375
SMAStrip_(Nitinol).169, SPOS, 510.375
SMAStrip_(Nitinol).170, SPOS, 510.375
SMAStrip_(Nitinol).171, SPOS, 510.375
SMAStrip_(Nitinol).172, SPOS, 510.375
SMAStrip_(Nitinol).173, SPOS, 510.375
SMAStrip_(Nitinol).174, SPOS, 510.375
SMAStrip_(Nitinol).175, SPOS, 510.375
SMAStrip_(Nitinol).176, SPOS, 510.375
SMAStrip_(Nitinol).177, SPOS, 510.375
SMAStrip_(Nitinol).178, SPOS, 510.375
SMAStrip_(Nitinol).179, SPOS, 510.375
SMAStrip_(Nitinol).180, SPOS, 510.375
SMAStrip_(Nitinol).181, SPOS, 510.375
SMAStrip_(Nitinol).182, SPOS, 510.375
SMAStrip_(Nitinol).183, SPOS, 510.375
SMAStrip_(Nitinol).184, SPOS, 510.375
SMAStrip_(Nitinol).185, SPOS, 510.375
SMAStrip_(Nitinol).186, SPOS, 510.375
SMAStrip_(Nitinol).187, SPOS, 510.375
SMAStrip_(Nitinol).188, SPOS, 510.375
SMAStrip_(Nitinol).189, SPOS, 510.375
SMAStrip_(Nitinol).190, SPOS, 510.375
SMAStrip_(Nitinol).191, SPOS, 510.375
SMAStrip_(Nitinol).192, SPOS, 510.375
SMAStrip_(Nitinol).193, SPOS, 510.375
SMAStrip_(Nitinol).194, SPOS, 510.375
SMAStrip_(Nitinol).195, SPOS, 510.375
SMAStrip_(Nitinol).196, SPOS, 510.375
SMAStrip_(Nitinol).197, SPOS, 510.375
SMAStrip_(Nitinol).198, SPOS, 510.375
SMAStrip_(Nitinol).199, SPOS, 510.375
SMAStrip_(Nitinol).200, SPOS, 510.375
SMAStrip_(Nitinol).201, SPOS, 510.375
SMAStrip_(Nitinol).202, SPOS, 510.375
SMAStrip_(Nitinol).203, SPOS, 510.375
SMAStrip_(Nitinol).204, SPOS, 510.375
SMAStrip_(Nitinol).205, SPOS, 510.375
SMAStrip_(Nitinol).206, SPOS, 510.375
SMAStrip_(Nitinol).207, SPOS, 510.375
SMAStrip_(Nitinol).208, SPOS, 510.375
SMAStrip_(Nitinol).209, SPOS, 510.375
SMAStrip_(Nitinol).210, SPOS, 510.375
SMAStrip_(Nitinol).211, SPOS, 510.375
SMAStrip_(Nitinol).212, SPOS, 510.375
SMAStrip_(Nitinol).213, SPOS, 510.375
SMAStrip_(Nitinol).214, SPOS, 510.375
SMAStrip_(Nitinol).215, SPOS, 510.375
SMAStrip_(Nitinol).216, SPOS, 510.375
SMAStrip_(Nitinol).217, SPOS, 510.375
SMAStrip_(Nitinol).218, SPOS, 510.375
SMAStrip_(Nitinol).219, SPOS, 510.375
SMAStrip_(Nitinol).220, SPOS, 510.375
SMAStrip_(Nitinol).221, SPOS, 510.375
SMAStrip_(Nitinol).222, SPOS, 510.375
SMAStrip_(Nitinol).223, SPOS, 510.375
SMAStrip_(Nitinol).224, SPOS, 510.375
SMAStrip_(Nitinol).225, SPOS, 510.375
SMAStrip_(Nitinol).226, SPOS, 510.375
SMAStrip_(Nitinol).227, SPOS, 510.375
SMAStrip_(Nitinol).228, SPOS, 510.375
SMAStrip_(Nitinol).229, SPOS, 510.375
SMAStrip_(Nitinol).230, SPOS, 510.375
SMAStrip_(Nitinol).231, SPOS, 510.375
SMAStrip_(Nitinol).232, SPOS, 510.375
SMAStrip_(Nitinol).233, SPOS, 510.375
SMAStrip_(Nitinol).234, SPOS, 510.375
SMAStrip_(Nitinol).235, SPOS, 510.375
SMAStrip_(Nitinol).236, SPOS, 510.375
SMAStrip_(Nitinol).237, SPOS, 510.375
SMAStrip_(Nitinol).238, SPOS, 510.375
SMAStrip_(Nitinol).239, SPOS, 510.375
SMAStrip_(Nitinol).240, SPOS, 510.375
SMAStrip_(Nitinol).241, SPOS, 510.375
SMAStrip_(Nitinol).242, SPOS, 510.375
SMAStrip_(Nitinol).243, SPOS, 510.375
SMAStrip_(Nitinol).244, SPOS, 510.375
SMAStrip_(Nitinol).245, SPOS, 510.375
SMAStrip_(Nitinol).246, SPOS, 510.375
SMAStrip_(Nitinol).247, SPOS, 510.375
SMAStrip_(Nitinol).248, SPOS, 510.375
SMAStrip_(Nitinol).249, SPOS, 510.375
SMAStrip_(Nitinol).250, SPOS, 510.375
SMAStrip_(Nitinol).251, SPOS, 510.375
SMAStrip_(Nitinol).252, SPOS, 510.375
SMAStrip_(Nitinol).253, SPOS, 510.375
SMAStrip_(Nitinol).254, SPOS, 510.375
SMAStrip_(Nitinol).255, SPOS, 510.375
SMAStrip_(Nitinol).256, SPOS, 510.375
SMAStrip_(Nitinol).257, SPOS, 510.375
SMAStrip_(Nitinol).258, SPOS, 510.375
SMAStrip_(Nitinol).259, SPOS, 510.375
SMAStrip_(Nitinol).260, SPOS, 510.375
SMAStrip_(Nitinol).261, SPOS, 510.375
SMAStrip_(Nitinol).262, SPOS, 510.375
SMAStrip_(Nitinol).263, SPOS, 510.375
SMAStrip_(Nitinol).264, SPOS, 510.375
SMAStrip_(Nitinol).265, SPOS, 510.375
SMAStrip_(Nitinol).266, SPOS, 510.375
SMAStrip_(Nitinol).267, SPOS, 510.375
SMAStrip_(Nitinol).268, SPOS, 510.375
SMAStrip_(Nitinol).269, SPOS, 510.375
SMAStrip_(Nitinol).270, SPOS, 510.375
SMAStrip_(Nitinol).271, SPOS, 510.375
SMAStrip_(Nitinol).272, SPOS, 510.375
SMAStrip_(Nitinol).273, SPOS, 510.375
SMAStrip_(Nitinol).274, SPOS, 510.375
SMAStrip_(Nitinol).275, SPOS, 510.375
SMAStrip_(Nitinol).276, SPOS, 510.375
SMAStrip_(Nitinol).277, SPOS, 510.375
SMAStrip_(Nitinol).278, SPOS, 510.375
SMAStrip_(Nitinol).279, SPOS, 510.375
SMAStrip_(Nitinol).280, SPOS, 510.375
SMAStrip_(Nitinol).281, SPOS, 510.375
SMAStrip_(Nitinol).282, SPOS, 510.375
SMAStrip_(Nitinol).283, SPOS, 510.375
SMAStrip_(Nitinol).284, SPOS, 510.375
SMAStrip_(Nitinol).285, SPOS, 510.375
SMAStrip_(Nitinol).286, SPOS, 510.375
SMAStrip_(Nitinol).287, SPOS, 510.375
SMAStrip_(Nitinol).288, SPOS, 510.375
SMAStrip_(Nitinol).289, SPOS, 510.375
SMAStrip_(Nitinol).290, SPOS, 510.375
SMAStrip_(Nitinol).291, SPOS, 510.375
SMAStrip_(Nitinol).292, SPOS, 510.375
SMAStrip_(Nitinol).293, SPOS, 510.375
SMAStrip_(Nitinol).294, SPOS, 510.375
SMAStrip_(Nitinol).295, SPOS, 510.375
SMAStrip_(Nitinol).296, SPOS, 510.375
SMAStrip_(Nitinol).297, SPOS, 510.375
SMAStrip_(Nitinol).298, SPOS, 510.375
SMAStrip_(Nitinol).299, SPOS, 510.375
SMAStrip_(Nitinol).300, SPOS, 510.375
SMAStrip_(Nitinol).301, SPOS, 510.375
SMAStrip_(Nitinol).302, SPOS, 510.375
SMAStrip_(Nitinol).303, SPOS, 510.375
SMAStrip_(Nitinol).304, SPOS, 510.375
SMAStrip_(Nitinol).305, SPOS, 510.375
SMAStrip_(Nitinol).306, SPOS, 510.375
SMAStrip_(Nitinol).307, SPOS, 510.375
SMAStrip_(Nitinol).308, SPOS, 510.375
SMAStrip_(Nitinol).309, SPOS, 510.375
SMAStrip_(Nitinol).310, SPOS, 510.375
SMAStrip_(Nitinol).311, SPOS, 510.375
SMAStrip_(Nitinol).312, SPOS, 510.375
SMAStrip_(Nitinol).313, SPOS, 510.375
SMAStrip_(Nitinol).314, SPOS, 510.375
SMAStrip_(Nitinol).315, SPOS, 510.375
SMAStrip_(Nitinol).316, SPOS, 510.375
SMAStrip_(Nitinol).317, SPOS, 510.375
SMAStrip_(Nitinol).318, SPOS, 510.375
SMAStrip_(Nitinol).319, SPOS, 510.375
SMAStrip_(Nitinol).320, SPOS, 510.375
SMAStrip_(Nitinol).321, SPOS, 510.375
SMAStrip_(Nitinol).322, SPOS, 510.375
SMAStrip_(Nitinol).323, SPOS, 510.375
SMAStrip_(Nitinol).324, SPOS, 510.375
SMAStrip_(Nitinol).325, SPOS, 510.375
SMAStrip_(Nitinol).326, SPOS, 510.375
SMAStrip_(Nitinol).327, SPOS, 510.375
SMAStrip_(Nitinol).328, SPOS, 510.375
SMAStrip_(Nitinol).329, SPOS, 510.375
SMAStrip_(Nitinol).330, SPOS, 510.375
SMAStrip_(Nitinol).331, SPOS, 510.375
SMAStrip_(Nitinol).332, SPOS, 510.375
SMAStrip_(Nitinol).333, SPOS, 510.375
SMAStrip_(Nitinol).334, SPOS, 510.375
SMAStrip_(Nitinol).335, SPOS, 510.375
SMAStrip_(Nitinol).336, SPOS, 510.375
SMAStrip_(Nitinol).337, SPOS, 510.375
SMAStrip_(Nitinol).338, SPOS, 510.375
SMAStrip_(Nitinol).339, SPOS, 510.375
SMAStrip_(Nitinol).340, SPOS, 510.375
SMAStrip_(Nitinol).341, SPOS, 510.375
SMAStrip_(Nitinol).342, SPOS, 510.375
SMAStrip_(Nitinol).343, SPOS, 510.375
SMAStrip_(Nitinol).344, SPOS, 510.375
SMAStrip_(Nitinol).345, SPOS, 510.375
SMAStrip_(Nitinol).346, SPOS, 510.375
SMAStrip_(Nitinol).347, SPOS, 510.375
SMAStrip_(Nitinol).348, SPOS, 510.375
SMAStrip_(Nitinol).349, SPOS, 510.375
SMAStrip_(Nitinol).350, SPOS, 510.375
SMAStrip_(Nitinol).351, SPOS, 510.375
SMAStrip_(Nitinol).352, SPOS, 510.375
SMAStrip_(Nitinol).353, SPOS, 510.375
SMAStrip_(Nitinol).354, SPOS, 510.375
SMAStrip_(Nitinol).355, SPOS, 510.375
SMAStrip_(Nitinol).356, SPOS, 510.375
SMAStrip_(Nitinol).357, SPOS, 510.375
SMAStrip_(Nitinol).358, SPOS, 510.375
SMAStrip_(Nitinol).359, SPOS, 510.375
SMAStrip_(Nitinol).360, SPOS, 510.375
SMAStrip_(Nitinol).361, SPOS, 510.375
SMAStrip_(Nitinol).362, SPOS, 510.375
SMAStrip_(Nitinol).363, SPOS, 510.375
SMAStrip_(Nitinol).364, SPOS, 510.375
SMAStrip_(Nitinol).365, SPOS, 510.375
SMAStrip_(Nitinol).366, SPOS, 510.375
SMAStrip_(Nitinol).367, SPOS, 510.375
SMAStrip_(Nitinol).368, SPOS, 510.375
SMAStrip_(Nitinol).369, SPOS, 510.375
SMAStrip_(Nitinol).370, SPOS, 510.375
SMAStrip_(Nitinol).371, SPOS, 510.375
SMAStrip_(Nitinol).372, SPOS, 510.375
SMAStrip_(Nitinol).373, SPOS, 510.375
SMAStrip_(Nitinol).374, SPOS, 510.375
SMAStrip_(Nitinol).375, SPOS, 510.375
SMAStrip_(Nitinol).376, SPOS, 510.375
SMAStrip_(Nitinol).377, SPOS, 510.375
SMAStrip_(Nitinol).378, SPOS, 510.375
SMAStrip_(Nitinol).379, SPOS, 510.375
SMAStrip_(Nitinol).380, SPOS, 510.375
SMAStrip_(Nitinol).381, SPOS, 510.375
SMAStrip_(Nitinol).382, SPOS, 510.375
SMAStrip_(Nitinol).383, SPOS, 510.375
SMAStrip_(Nitinol).384, SPOS, 510.375
SMAStrip_(Nitinol).385, SPOS, 510.375
SMAStrip_(Nitinol).386, SPOS, 510.375
SMAStrip_(Nitinol).387, SPOS, 510.375
SMAStrip_(Nitinol).388, SPOS, 510.375
SMAStrip_(Nitinol).389, SPOS, 510.375
SMAStrip_(Nitinol).390, SPOS, 510.375
SMAStrip_(Nitinol).391, SPOS, 510.375
SMAStrip_(Nitinol).392, SPOS, 510.375
SMAStrip_(Nitinol).393, SPOS, 510.375
SMAStrip_(Nitinol).394, SPOS, 510.375
SMAStrip_(Nitinol).395, SPOS, 510.375
SMAStrip_(Nitinol).396, SPOS, 510.375
SMAStrip_(Nitinol).397, SPOS, 510.375
SMAStrip_(Nitinol).398, SPOS, 510.375
SMAStrip_(Nitinol).399, SPOS, 510.375
SMAStrip_(Nitinol).400, SPOS, 510.375
SMAStrip_(Nitinol).401, SPOS, 510.375
SMAStrip_(Nitinol).402, SPOS, 510.375
SMAStrip_(Nitinol).403, SPOS, 510.375
SMAStrip_(Nitinol).404, SPOS, 510.375
SMAStrip_(Nitinol).405, SPOS, 510.375
SMAStrip_(Nitinol).406, SPOS, 510.375
SMAStrip_(Nitinol).407, SPOS, 510.375
SMAStrip_(Nitinol).408, SPOS, 510.375
SMAStrip_(Nitinol).409, SPOS, 510.375
SMAStrip_(Nitinol).410, SPOS, 510.375
SMAStrip_(Nitinol).411, SPOS, 510.375
SMAStrip_(Nitinol).412, SPOS, 510.375
SMAStrip_(Nitinol).413, SPOS, 510.375
SMAStrip_(Nitinol).414, SPOS, 510.375
SMAStrip_(Nitinol).415, SPOS, 510.375
SMAStrip_(Nitinol).416, SPOS, 510.375
SMAStrip_(Nitinol).417, SPOS, 510.375
SMAStrip_(Nitinol).418, SPOS, 510.375
SMAStrip_(Nitinol).419, SPOS, 510.375
SMAStrip_(Nitinol).420, SPOS, 510.375
SMAStrip_(Nitinol).421, SPOS, 510.375
SMAStrip_(Nitinol).422, SPOS, 510.375
SMAStrip_(Nitinol).423, SPOS, 510.375
SMAStrip_(Nitinol).424, SPOS, 510.375
SMAStrip_(Nitinol).425, SPOS, 510.375
SMAStrip_(Nitinol).426, SPOS, 510.375
SMAStrip_(Nitinol).427, SPOS, 510.375
SMAStrip_(Nitinol).428, SPOS, 510.375
SMAStrip_(Nitinol).429, SPOS, 510.375
SMAStrip_(Nitinol).430, SPOS, 510.375
SMAStrip_(Nitinol).431, SPOS, 510.375
SMAStrip_(Nitinol).432, SPOS, 510.375
SMAStrip_(Nitinol).433, SPOS, 510.375
SMAStrip_(Nitinol).434, SPOS, 510.375
SMAStrip_(Nitinol).435, SPOS, 510.375
SMAStrip_(Nitinol).436, SPOS, 510.375
SMAStrip_(Nitinol).437, SPOS, 510.375
SMAStrip_(Nitinol).438, SPOS, 510.375
SMAStrip_(Nitinol).439, SPOS, 510.375
SMAStrip_(Nitinol).440, SPOS, 510.375
SMAStrip_(Nitinol).441, SPOS, 510.375
SMAStrip_(Nitinol).442, SPOS, 510.375
SMAStrip_(Nitinol).443, SPOS, 510.375
SMAStrip_(Nitinol).444, SPOS, 510.375
SMAStrip_(Nitinol).445, SPOS, 510.375
SMAStrip_(Nitinol).446, SPOS, 510.375
SMAStrip_(Nitinol).447, SPOS, 510.375
SMAStrip_(Nitinol).448, SPOS, 510.375
SMAStrip_(Nitinol).449, SPOS, 510.375
SMAStrip_(Nitinol).450, SPOS, 510.375
SMAStrip_(Nitinol).451, SPOS, 510.375
SMAStrip_(Nitinol).452, SPOS, 510.375
SMAStrip_(Nitinol).453, SPOS, 510.375
SMAStrip_(Nitinol).454, SPOS, 510.375
SMAStrip_(Nitinol).455, SPOS, 510.375
SMAStrip_(Nitinol).456, SPOS, 510.375
SMAStrip_(Nitinol).457, SPOS, 510.375
SMAStrip_(Nitinol).458, SPOS, 510.375
SMAStrip_(Nitinol).459, SPOS, 510.375
SMAStrip_(Nitinol).460, SPOS, 510.375
SMAStrip_(Nitinol).461, SPOS, 510.375
SMAStrip_(Nitinol).462, SPOS, 510.375
SMAStrip_(Nitinol).463, SPOS, 510.375
SMAStrip_(Nitinol).464, SPOS, 510.375
SMAStrip_(Nitinol).465, SPOS, 510.375
SMAStrip_(Nitinol).466, SPOS, 510.375
SMAStrip_(Nitinol).467, SPOS, 510.375
SMAStrip_(Nitinol).468, SPOS, 510.375
SMAStrip_(Nitinol).469, SPOS, 510.375
SMAStrip_(Nitinol).470, SPOS, 510.375
SMAStrip_(Nitinol).471, SPOS, 510.375
SMAStrip_(Nitinol).472, SPOS, 510.375
SMAStrip_(Nitinol).473, SPOS, 510.375
SMAStrip_(Nitinol).474, SPOS, 510.375
SMAStrip_(Nitinol).475, SPOS, 510.375
SMAStrip_(Nitinol).476, SPOS, 510.375
SMAStrip_(Nitinol).477, SPOS, 510.375
SMAStrip_(Nitinol).478, SPOS, 510.375
SMAStrip_(Nitinol).479, SPOS, 510.375
SMAStrip_(Nitinol).480, SPOS, 510.375
SMAStrip_(Nitinol).481, SPOS, 510.375
SMAStrip_(Nitinol).482, SPOS, 510.375
SMAStrip_(Nitinol).483, SPOS, 510.375
SMAStrip_(Nitinol).484, SPOS, 510.375
SMAStrip_(Nitinol).485, SPOS, 510.375
SMAStrip_(Nitinol).486, SPOS, 510.375
SMAStrip_(Nitinol).487, SPOS, 510.375
SMAStrip_(Nitinol).488, SPOS, 510.375
SMAStrip_(Nitinol).489, SPOS, 510.375
SMAStrip_(Nitinol).490, SPOS, 510.375
SMAStrip_(Nitinol).491, SPOS, 510.375
SMAStrip_(Nitinol).492, SPOS, 510.375
SMAStrip_(Nitinol).493, SPOS, 510.375
SMAStrip_(Nitinol).494, SPOS, 510.375
SMAStrip_(Nitinol).495, SPOS, 510.375
SMAStrip_(Nitinol).496, SPOS, 510.375
SMAStrip_(Nitinol).497, SPOS, 510.375
SMAStrip_(Nitinol).498, SPOS, 510.375
SMAStrip_(Nitinol).499, SPOS, 510.375
SMAStrip_(Nitinol).500, SPOS, 510.375
SMAStrip_(Nitinol).501, SPOS, 510.375
SMAStrip_(Nitinol).502, SPOS, 510.375
SMAStrip_(Nitinol).503, SPOS, 510.375
SMAStrip_(Nitinol).504, SPOS, 510.375
SMAStrip_(Nitinol).505, SPOS, 510.375
SMAStrip_(Nitinol).506, SPOS, 510.375
SMAStrip_(Nitinol).507, SPOS, 510.375
SMAStrip_(Nitinol).508, SPOS, 510.375
SMAStrip_(Nitinol).509, SPOS, 510.375
SMAStrip_(Nitinol).510, SPOS, 510.375
SMAStrip_(Nitinol).511, SPOS, 510.375
SMAStrip_(Nitinol).512, SPOS, 510.375
SMAStrip_(Nitinol).513, SPOS, 510.375
SMAStrip_(Nitinol).514, SPOS, 510.375
SMAStrip_(Nitinol).515, SPOS, 510.375
SMAStrip_(Nitinol).516, SPOS, 510.375
SMAStrip_(Nitinol).517, SPOS, 510.375
SMAStrip_(Nitinol).518, SPOS, 510.375
SMAStrip_(Nitinol).519, SPOS, 510.375
SMAStrip_(Nitinol).520, SPOS, 510.375
SMAStrip_(Nitinol).521, SPOS, 510.375
SMAStrip_(Nitinol).522, SPOS, 510.375
SMAStrip_(Nitinol).523, SPOS, 510.375
SMAStrip_(Nitinol).524, SPOS, 510.375
SMAStrip_(Nitinol).525, SPOS, 510.375
SMAStrip_(Nitinol).526, SPOS, 510.375
SMAStrip_(Nitinol).527, SPOS, 510.375
SMAStrip_(Nitinol).528, SPOS, 510.375
SMAStrip_(Nitinol).529, SPOS, 510.375
SMAStrip_(Nitinol).530, SPOS, 510.375
SMAStrip_(Nitinol).531, SPOS, 510.375
SMAStrip_(Nitinol).532, SPOS, 510.375
SMAStrip_(Nitinol).533, SPOS, 510.375
SMAStrip_(Nitinol).534, SPOS, 510.375
SMAStrip_(Nitinol).535, SPOS, 510.375
SMAStrip_(Nitinol).536, SPOS, 510.375
SMAStrip_(Nitinol).537, SPOS, 510.375
SMAStrip_(Nitinol).538, SPOS, 510.375
SMAStrip_(Nitinol).539, SPOS, 510.375
SMAStrip_(Nitinol).540, SPOS, 510.375
SMAStrip_(Nitinol).541, SPOS, 510.375
SMAStrip_(Nitinol).542, SPOS, 510.375
SMAStrip_(Nitinol).543, SPOS, 510.375
SMAStrip_(Nitinol).544, SPOS, 510.375
SMAStrip_(Nitinol).545, SPOS, 510.375
SMAStrip_(Nitinol).546, SPOS, 510.375
SMAStrip_(Nitinol).547, SPOS, 510.375
SMAStrip_(Nitinol).548, SPOS, 510.375
SMAStrip_(Nitinol).549, SPOS, 510.375
SMAStrip_(Nitinol).550, SPOS, 510.375
SMAStrip_(Nitinol).551, SPOS, 510.375
SMAStrip_(Nitinol).552, SPOS, 510.375
SMAStrip_(Nitinol).553, SPOS, 510.375
SMAStrip_(Nitinol).554, SPOS, 510.375
SMAStrip_(Nitinol).555, SPOS, 510.375
SMAStrip_(Nitinol).556, SPOS, 510.375
SMAStrip_(Nitinol).557, SPOS, 510.375
SMAStrip_(Nitinol).558, SPOS, 510.375
SMAStrip_(Nitinol).559, SPOS, 510.375
SMAStrip_(Nitinol).560, SPOS, 510.375
SMAStrip_(Nitinol).561, SPOS, 510.375
SMAStrip_(Nitinol).562, SPOS, 510.375
SMAStrip_(Nitinol).563, SPOS, 510.375
SMAStrip_(Nitinol).564, SPOS, 510.375
SMAStrip_(Nitinol).565, SPOS, 510.375
SMAStrip_(Nitinol).566, SPOS, 510.375
SMAStrip_(Nitinol).567, SPOS, 510.375
SMAStrip_(Nitinol).568, SPOS, 510.375
SMAStrip_(Nitinol).569, SPOS, 510.375
SMAStrip_(Nitinol).570, SPOS, 510.375
SMAStrip_(Nitinol).571, SPOS, 510.375
SMAStrip_(Nitinol).572, SPOS, 510.375
SMAStrip_(Nitinol).573, SPOS, 510.375
SMAStrip_(Nitinol).574, SPOS, 510.375
SMAStrip_(Nitinol).575, SPOS, 510.375
SMAStrip_(Nitinol).576, SPOS, 510.375
SMAStrip_(Nitinol).577, SPOS, 510.375
SMAStrip_(Nitinol).578, SPOS, 510.375
SMAStrip_(Nitinol).579, SPOS, 510.375
SMAStrip_(Nitinol).580, SPOS, 510.375
SMAStrip_(Nitinol).581, SPOS, 510.375
SMAStrip_(Nitinol).582, SPOS, 510.375
SMAStrip_(Nitinol).583, SPOS, 510.375
SMAStrip_(Nitinol).584, SPOS, 510.375
SMAStrip_(Nitinol).585, SPOS, 510.375
SMAStrip_(Nitinol).586, SPOS, 510.375
SMAStrip_(Nitinol).587, SPOS, 510.375
SMAStrip_(Nitinol).588, SPOS, 510.375
SMAStrip_(Nitinol).589, SPOS, 510.375
SMAStrip_(Nitinol).590, SPOS, 510.375
SMAStrip_(Nitinol).591, SPOS, 510.375
SMAStrip_(Nitinol).592, SPOS, 510.375
SMAStrip_(Nitinol).593, SPOS, 510.375
SMAStrip_(Nitinol).594, SPOS, 510.375
SMAStrip_(Nitinol).595, SPOS, 510.375
SMAStrip_(Nitinol).596, SPOS, 510.375
SMAStrip_(Nitinol).597, SPOS, 510.375
SMAStrip_(Nitinol).598, SPOS, 510.375
SMAStrip_(Nitinol).599, SPOS, 510.375
SMAStrip_(Nitinol).600, SPOS, 510.375
SMAStrip_(Nitinol).601, SPOS, 510.375
SMAStrip_(Nitinol).602, SPOS, 510.375
SMAStrip_(Nitinol).603, SPOS, 510.375
SMAStrip_(Nitinol).604, SPOS, 510.375
SMAStrip_(Nitinol).605, SPOS, 510.375
SMAStrip_(Nitinol).606, SPOS, 510.375
SMAStrip_(Nitinol).607, SPOS, 510.375
SMAStrip_(Nitinol).608, SPOS, 510.375
SMAStrip_(Nitinol).609, SPOS, 510.375
SMAStrip_(Nitinol).610, SPOS, 510.375
SMAStrip_(Nitinol).611, SPOS, 510.375
SMAStrip_(Nitinol).612, SPOS, 510.375
SMAStrip_(Nitinol).613, SPOS, 510.375
SMAStrip_(Nitinol).614, SPOS, 510.375
SMAStrip_(Nitinol).615, SPOS, 510.375
SMAStrip_(Nitinol).616, SPOS, 510.375
SMAStrip_(Nitinol).617, SPOS, 510.375
SMAStrip_(Nitinol).618, SPOS, 510.375
SMAStrip_(Nitinol).619, SPOS, 510.375
SMAStrip_(Nitinol).620, SPOS, 510.375
SMAStrip_(Nitinol).621, SPOS, 510.375
SMAStrip_(Nitinol).622, SPOS, 510.375
SMAStrip_(Nitinol).623, SPOS, 510.375
SMAStrip_(Nitinol).624, SPOS, 510.375
SMAStrip_(Nitinol).625, SPOS, 510.375
SMAStrip_(Nitinol).626, SPOS, 510.375
SMAStrip_(Nitinol).627, SPOS, 510.375
SMAStrip_(Nitinol).628, SPOS, 510.375
SMAStrip_(Nitinol).629, SPOS, 510.375
SMAStrip_(Nitinol).630, SPOS, 510.375
SMAStrip_(Nitinol).631, SPOS, 510.375
SMAStrip_(Nitinol).632, SPOS, 510.375
SMAStrip_(Nitinol).633, SPOS, 510.375
SMAStrip_(Nitinol).634, SPOS, 510.375
SMAStrip_(Nitinol).635, SPOS, 510.375
SMAStrip_(Nitinol).636, SPOS, 510.375
SMAStrip_(Nitinol).637, SPOS, 510.375
SMAStrip_(Nitinol).638, SPOS, 510.375
SMAStrip_(Nitinol).639, SPOS, 510.375
SMAStrip_(Nitinol).640, SPOS, 510.375
SMAStrip_(Nitinol).641, SPOS, 510.375
SMAStrip_(Nitinol).642, SPOS, 510.375
SMAStrip_(Nitinol).643, SPOS, 510.375
SMAStrip_(Nitinol).644, SPOS, 510.375
SMAStrip_(Nitinol).645, SPOS, 510.375
SMAStrip_(Nitinol).646, SPOS, 510.375
SMAStrip_(Nitinol).647, SPOS, 510.375
SMAStrip_(Nitinol).648, SPOS, 510.375
SMAStrip_(Nitinol).649, SPOS, 510.375
SMAStrip_(Nitinol).650, SPOS, 510.375
SMAStrip_(Nitinol).651, SPOS, 510.375
SMAStrip_(Nitinol).652, SPOS, 510.375
SMAStrip_(Nitinol).653, SPOS, 510.375
SMAStrip_(Nitinol).654, SPOS, 510.375
SMAStrip_(Nitinol).655, SPOS, 510.375
SMAStrip_(Nitinol).656, SPOS, 510.375
SMAStrip_(Nitinol).657, SPOS, 510.375
SMAStrip_(Nitinol).658, SPOS, 510.375
SMAStrip_(Nitinol).659, SPOS, 510.375
SMAStrip_(Nitinol).660, SPOS, 510.375
SMAStrip_(Nitinol).661, SPOS, 510.375
SMAStrip_(Nitinol).662, SPOS, 510.375
SMAStrip_(Nitinol).663, SPOS, 510.375
SMAStrip_(Nitinol).664, SPOS, 510.375
SMAStrip_(Nitinol).665, SPOS, 510.375
SMAStrip_(Nitinol).666, SPOS, 510.375
SMAStrip_(Nitinol).667, SPOS, 510.375
SMAStrip_(Nitinol).668, SPOS, 510.375
SMAStrip_(Nitinol).669, SPOS, 510.375
SMAStrip_(Nitinol).670, SPOS, 510.375
SMAStrip_(Nitinol).671, SPOS, 510.375
SMAStrip_(Nitinol).672, SPOS, 510.375
SMAStrip_(Nitinol).673, SPOS, 510.375
SMAStrip_(Nitinol).674, SPOS, 510.375
SMAStrip_(Nitinol).675, SPOS, 510.375
SMAStrip_(Nitinol).676, SPOS, 510.375
SMAStrip_(Nitinol).677, SPOS, 510.375
SMAStrip_(Nitinol).678, SPOS, 510.375
SMAStrip_(Nitinol).679, SPOS, 510.375
SMAStrip_(Nitinol).680, SPOS, 510.375
SMAStrip_(Nitinol).681, SPOS, 510.375
SMAStrip_(Nitinol).682, SPOS, 510.375
SMAStrip_(Nitinol).683, SPOS, 510.375
SMAStrip_(Nitinol).684, SPOS, 510.375
SMAStrip_(Nitinol).685, SPOS, 510.375
SMAStrip_(Nitinol).686, SPOS, 510.375
SMAStrip_(Nitinol).687, SPOS, 510.375
SMAStrip_(Nitinol).688, SPOS, 510.375
SMAStrip_(Nitinol).689, SPOS, 510.375
SMAStrip_(Nitinol).690, SPOS, 510.375
SMAStrip_(Nitinol).691, SPOS, 510.375
SMAStrip_(Nitinol).692, SPOS, 510.375
SMAStrip_(Nitinol).693, SPOS, 510.375
SMAStrip_(Nitinol).694, SPOS, 510.375
SMAStrip_(Nitinol).695, SPOS, 510.375
SMAStrip_(Nitinol).696, SPOS, 510.375
SMAStrip_(Nitinol).697, SPOS, 510.375
SMAStrip_(Nitinol).698, SPOS, 510.375
SMAStrip_(Nitinol).699, SPOS, 510.375
SMAStrip_(Nitinol).700, SPOS, 510.375
SMAStrip_(Nitinol).701, SPOS, 510.375
SMAStrip_(Nitinol).702, SPOS, 510.375
SMAStrip_(Nitinol).703, SPOS, 510.375
SMAStrip_(Nitinol).704, SPOS, 510.375
SMAStrip_(Nitinol).705, SPOS, 510.375
SMAStrip_(Nitinol).706, SPOS, 510.375
SMAStrip_(Nitinol).707, SPOS, 510.375
SMAStrip_(Nitinol).708, SPOS, 510.375
SMAStrip_(Nitinol).709, SPOS, 510.375
SMAStrip_(Nitinol).710, SPOS, 510.375
SMAStrip_(Nitinol).711, SPOS, 510.375
SMAStrip_(Nitinol).712, SPOS, 510.375
SMAStrip_(Nitinol).713, SPOS, 510.375
SMAStrip_(Nitinol).714, SPOS, 510.375
SMAStrip_(Nitinol).715, SPOS, 510.375
SMAStrip_(Nitinol).716, SPOS, 510.375
SMAStrip_(Nitinol).717, SPOS, 510.375
SMAStrip_(Nitinol).718, SPOS, 510.375
SMAStrip_(Nitinol).719, SPOS, 510.375
SMAStrip_(Nitinol).720, SPOS, 510.375
SMAStrip_(Nitinol).721, SPOS, 510.375
SMAStrip_(Nitinol).722, SPOS, 510.375
SMAStrip_(Nitinol).723, SPOS, 510.375
SMAStrip_(Nitinol).724, SPOS, 510.375
SMAStrip_(Nitinol).725, SPOS, 510.375
SMAStrip_(Nitinol).726, SPOS, 510.375
SMAStrip_(Nitinol).727, SPOS, 510.375
SMAStrip_(Nitinol).728, SPOS, 510.375
SMAStrip_(Nitinol).729, SPOS, 510.375
SMAStrip_(Nitinol).730, SPOS, 510.375
SMAStrip_(Nitinol).731, SPOS, 510.375
SMAStrip_(Nitinol).732, SPOS, 510.375
SMAStrip_(Nitinol).733, SPOS, 510.375
SMAStrip_(Nitinol).734, SPOS, 510.375
SMAStrip_(Nitinol).735, SPOS, 510.375
SMAStrip_(Nitinol).736, SPOS, 510.375
SMAStrip_(Nitinol).737, SPOS, 510.375
SMAStrip_(Nitinol).738, SPOS, 510.375
SMAStrip_(Nitinol).739, SPOS, 510.375
SMAStrip_(Nitinol).740, SPOS, 510.375
SMAStrip_(Nitinol).741, SPOS, 510.375
SMAStrip_(Nitinol).742, SPOS, 510.375
SMAStrip_(Nitinol).743, SPOS, 510.375
SMAStrip_(Nitinol).744, SPOS, 510.375
SMAStrip_(Nitinol).745, SPOS, 510.375
SMAStrip_(Nitinol).746, SPOS, 510.375
SMAStrip_(Nitinol).747, SPOS, 510.375
SMAStrip_(Nitinol).748, SPOS, 510.375
SMAStrip_(Nitinol).749, SPOS, 510.375
SMAStrip_(Nitinol).750, SPOS, 510.375
SMAStrip_(Nitinol).751, SPOS, 510.375
SMAStrip_(Nitinol).752, SPOS, 510.375
SMAStrip_(Nitinol).753, SPOS, 510.375
SMAStrip_(Nitinol).754, SPOS, 510.375
SMAStrip_(Nitinol).755, SPOS, 510.375
SMAStrip_(Nitinol).756, SPOS, 510.375
SMAStrip_(Nitinol).757, SPOS, 510.375
SMAStrip_(Nitinol).758, SPOS, 510.375
SMAStrip_(Nitinol).759, SPOS, 510.375
SMAStrip_(Nitinol).760, SPOS, 510.375
SMAStrip_(Nitinol).761, SPOS, 510.375
SMAStrip_(Nitinol).762, SPOS, 510.375
SMAStrip_(Nitinol).763, SPOS, 510.375
SMAStrip_(Nitinol).764, SPOS, 510.375
SMAStrip_(Nitinol).765, SPOS, 510.375
SMAStrip_(Nitinol).766, SPOS, 510.375
SMAStrip_(Nitinol).767, SPOS, 510.375
SMAStrip_(Nitinol).768, SPOS, 510.375
SMAStrip_(Nitinol).769, SPOS, 510.375
SMAStrip_(Nitinol).770, SPOS, 510.375
SMAStrip_(Nitinol).771, SPOS, 510.375
SMAStrip_(Nitinol).772, SPOS, 510.375
SMAStrip_(Nitinol).773, SPOS, 510.375
SMAStrip_(Nitinol).774, SPOS, 510.375
SMAStrip_(Nitinol).775, SPOS, 510.375
SMAStrip_(Nitinol).776, SPOS, 510.375
SMAStrip_(Nitinol).777, SPOS, 510.375
SMAStrip_(Nitinol).778, SPOS, 510.375
SMAStrip_(Nitinol).779, SPOS, 510.375
SMAStrip_(Nitinol).780, SPOS, 510.375
SMAStrip_(Nitinol).781, SPOS, 510.375
SMAStrip_(Nitinol).782, SPOS, 510.375
SMAStrip_(Nitinol).783, SPOS, 510.375
SMAStrip_(Nitinol).784, SPOS, 510.375
SMAStrip_(Nitinol).785, SPOS, 510.375
SMAStrip_(Nitinol).786, SPOS, 510.375
SMAStrip_(Nitinol).787, SPOS, 510.375
SMAStrip_(Nitinol).788, SPOS, 510.375
SMAStrip_(Nitinol).789, SPOS, 510.375
SMAStrip_(Nitinol).790, SPOS, 510.375
SMAStrip_(Nitinol).791, SPOS, 510.375
SMAStrip_(Nitinol).792, SPOS, 510.375
SMAStrip_(Nitinol).793, SPOS, 510.375
SMAStrip_(Nitinol).794, SPOS, 510.375
SMAStrip_(Nitinol).795, SPOS, 510.375
SMAStrip_(Nitinol).796, SPOS, 510.375
SMAStrip_(Nitinol).797, SPOS, 510.375
SMAStrip_(Nitinol).798, SPOS, 510.375
SMAStrip_(Nitinol).799, SPOS, 510.375
SMAStrip_(Nitinol).800, SPOS, 510.375
SMAStrip_(Nitinol).801, SPOS, 510.375
SMAStrip_(Nitinol).802, SPOS, 510.375
SMAStrip_(Nitinol).803, SPOS, 510.375
SMAStrip_(Nitinol).804, SPOS, 510.375
SMAStrip_(Nitinol).805, SPOS, 510.375
SMAStrip_(Nitinol).806, SPOS, 510.375
SMAStrip_(Nitinol).807, SPOS, 510.375
SMAStrip_(Nitinol).808, SPOS, 510.375
SMAStrip_(Nitinol).809, SPOS, 510.375
SMAStrip_(Nitinol).810, SPOS, 510.375
SMAStrip_(Nitinol).811, SPOS, 510.375
SMAStrip_(Nitinol).812, SPOS, 510.375
SMAStrip_(Nitinol).813, SPOS, 510.375
SMAStrip_(Nitinol).814, SPOS, 510.375
SMAStrip_(Nitinol).815, SPOS, 510.375
SMAStrip_(Nitinol).816, SPOS, 510.375
SMAStrip_(Nitinol).817, SPOS, 510.375
SMAStrip_(Nitinol).818, SPOS, 510.375
SMAStrip_(Nitinol).819, SPOS, 510.375
SMAStrip_(Nitinol).820, SPOS, 510.375
SMAStrip_(Nitinol).821, SPOS, 510.375
SMAStrip_(Nitinol).822, SPOS, 510.375
SMAStrip_(Nitinol).823, SPOS, 510.375
SMAStrip_(Nitinol).824, SPOS, 510.375
SMAStrip_(Nitinol).825, SPOS, 510.375
SMAStrip_(Nitinol).826, SPOS, 510.375
SMAStrip_(Nitinol).827, SPOS, 510.375
SMAStrip_(Nitinol).828, SPOS, 510.375
SMAStrip_(Nitinol).829, SPOS, 510.375
SMAStrip_(Nitinol).830, SPOS, 510.375
SMAStrip_(Nitinol).831, SPOS, 510.375
SMAStrip_(Nitinol).832, SPOS, 510.375
SMAStrip_(Nitinol).833, SPOS, 510.375
SMAStrip_(Nitinol).834, SPOS, 510.375
SMAStrip_(Nitinol).835, SPOS, 510.375
SMAStrip_(Nitinol).836, SPOS, 510.375
SMAStrip_(Nitinol).837, SPOS, 510.375
SMAStrip_(Nitinol).838, SPOS, 510.375
SMAStrip_(Nitinol).839, SPOS, 510.375
SMAStrip_(Nitinol).840, SPOS, 510.375
SMAStrip_(Nitinol).841, SPOS, 510.375
SMAStrip_(Nitinol).842, SPOS, 510.375
SMAStrip_(Nitinol).843, SPOS, 510.375
SMAStrip_(Nitinol).844, SPOS, 510.375
SMAStrip_(Nitinol).845, SPOS, 510.375
SMAStrip_(Nitinol).846, SPOS, 510.375
SMAStrip_(Nitinol).847, SPOS, 510.375
SMAStrip_(Nitinol).848, SPOS, 510.375
SMAStrip_(Nitinol).849, SPOS, 510.375
SMAStrip_(Nitinol).850, SPOS, 510.375
SMAStrip_(Nitinol).851, SPOS, 510.375
SMAStrip_(Nitinol).852, SPOS, 510.375
SMAStrip_(Nitinol).853, SPOS, 510.375
SMAStrip_(Nitinol).854, SPOS, 510.375
SMAStrip_(Nitinol).855, SPOS, 510.375
SMAStrip_(Nitinol).856, SPOS, 510.375
SMAStrip_(Nitinol).857, SPOS, 510.375
SMAStrip_(Nitinol).858, SPOS, 510.375
SMAStrip_(Nitinol).859, SPOS, 510.375
SMAStrip_(Nitinol).860, SPOS, 510.375
SMAStrip_(Nitinol).861, SPOS, 510.375
SMAStrip_(Nitinol).862, SPOS, 510.375
SMAStrip_(Nitinol).863, SPOS, 510.375
SMAStrip_(Nitinol).864, SPOS, 510.375
SMAStrip_(Nitinol).865, SPOS, 510.375
SMAStrip_(Nitinol).866, SPOS, 510.375
SMAStrip_(Nitinol).867, SPOS, 510.375
SMAStrip_(Nitinol).868, SPOS, 510.375
SMAStrip_(Nitinol).869, SPOS, 510.375
SMAStrip_(Nitinol).870, SPOS, 510.375
SMAStrip_(Nitinol).871, SPOS, 510.375
SMAStrip_(Nitinol).872, SPOS, 510.375
SMAStrip_(Nitinol).873, SPOS, 510.375
SMAStrip_(Nitinol).874, SPOS, 510.375
SMAStrip_(Nitinol).875, SPOS, 510.375
SMAStrip_(Nitinol).876, SPOS, 510.375
SMAStrip_(Nitinol).877, SPOS, 510.375
SMAStrip_(Nitinol).878, SPOS, 510.375
SMAStrip_(Nitinol).879, SPOS, 510.375
SMAStrip_(Nitinol).880, SPOS, 510.375
SMAStrip_(Nitinol).881, SPOS, 510.375
SMAStrip_(Nitinol).882, SPOS, 510.375
SMAStrip_(Nitinol).883, SPOS, 510.375
SMAStrip_(Nitinol).884, SPOS, 510.375
SMAStrip_(Nitinol).885, SPOS, 510.375
SMAStrip_(Nitinol).886, SPOS, 510.375
SMAStrip_(Nitinol).887, SPOS, 510.375
SMAStrip_(Nitinol).888, SPOS, 510.375
SMAStrip_(Nitinol).889, SPOS, 510.375
SMAStrip_(Nitinol).890, SPOS, 510.375
SMAStrip_(Nitinol).891, SPOS, 510.375
SMAStrip_(Nitinol).892, SPOS, 510.375
SMAStrip_(Nitinol).893, SPOS, 510.375
SMAStrip_(Nitinol).894, SPOS, 510.375
SMAStrip_(Nitinol).895, SPOS, 510.375
SMAStrip_(Nitinol).896, SPOS, 510.375
SMAStrip_(Nitinol).897, SPOS, 510.375
SMAStrip_(Nitinol).898, SPOS, 510.375
SMAStrip_(Nitinol).899, SPOS, 510.375
SMAStrip_(Nitinol).900, SPOS, 510.375
SMAStrip_(Nitinol).901, SPOS, 510.375
SMAStrip_(Nitinol).902, SPOS, 510.375
SMAStrip_(Nitinol).903, SPOS, 510.375
SMAStrip_(Nitinol).904, SPOS, 510.375
SMAStrip_(Nitinol).905, SPOS, 510.375
SMAStrip_(Nitinol).906, SPOS, 510.375
SMAStrip_(Nitinol).907, SPOS, 510.375
SMAStrip_(Nitinol).908, SPOS, 510.375
SMAStrip_(Nitinol).909, SPOS, 510.375
SMAStrip_(Nitinol).910, SPOS, 510.375
SMAStrip_(Nitinol).911, SPOS, 510.375
SMAStrip_(Nitinol).912, SPOS, 510.375
SMAStrip_(Nitinol).913, SPOS, 510.375
SMAStrip_(Nitinol).914, SPOS, 510.375
SMAStrip_(Nitinol).915, SPOS, 510.375
SMAStrip_(Nitinol).916, SPOS, 510.375
SMAStrip_(Nitinol).917, SPOS, 510.375
SMAStrip_(Nitinol).918, SPOS, 510.375
SMAStrip_(Nitinol).919, SPOS, 510.375
SMAStrip_(Nitinol).920, SPOS, 510.375
SMAStrip_(Nitinol).921, SPOS, 510.375
SMAStrip_(Nitinol).922, SPOS, 510.375
SMAStrip_(Nitinol).923, SPOS, 510.375
SMAStrip_(Nitinol).924, SPOS, 510.375
SMAStrip_(Nitinol).925, SPOS, 510.375
SMAStrip_(Nitinol).926, SPOS, 510.375
SMAStrip_(Nitinol).927, SPOS, 510.375
SMAStrip_(Nitinol).928, SPOS, 510.375
SMAStrip_(Nitinol).929, SPOS, 510.375
SMAStrip_(Nitinol).930, SPOS, 510.375
SMAStrip_(Nitinol).931, SPOS, 510.375
SMAStrip_(Nitinol).932, SPOS, 510.375
SMAStrip_(Nitinol).933, SPOS, 510.375
SMAStrip_(Nitinol).934, SPOS, 510.375
SMAStrip_(Nitinol).935, SPOS, 510.375
SMAStrip_(Nitinol).936, SPOS, 510.375
SMAStrip_(Nitinol).937, SPOS, 510.375
SMAStrip_(Nitinol).938, SPOS, 510.375
SMAStrip_(Nitinol).939, SPOS, 510.375
SMAStrip_(Nitinol).940, SPOS, 510.375
SMAStrip_(Nitinol).941, SPOS, 510.375
SMAStrip_(Nitinol).942, SPOS, 510.375
SMAStrip_(Nitinol).943, SPOS, 510.375
SMAStrip_(Nitinol).944, SPOS, 510.375
SMAStrip_(Nitinol).945, SPOS, 510.375
SMAStrip_(Nitinol).946, SPOS, 510.375
SMAStrip_(Nitinol).947, SPOS, 510.375
SMAStrip_(Nitinol).948, SPOS, 510.375
SMAStrip_(Nitinol).949, SPOS, 510.375
SMAStrip_(Nitinol).950, SPOS, 510.375
SMAStrip_(Nitinol).951, SPOS, 510.375
SMAStrip_(Nitinol).952, SPOS, 510.375
SMAStrip_(Nitinol).953, SPOS, 510.375
SMAStrip_(Nitinol).954, SPOS, 510.375
SMAStrip_(Nitinol).955, SPOS, 510.375
SMAStrip_(Nitinol).956, SPOS, 510.375
SMAStrip_(Nitinol).957, SPOS, 510.375
SMAStrip_(Nitinol).958, SPOS, 510.375
SMAStrip_(Nitinol).959, SPOS, 510.375
SMAStrip_(Nitinol).960, SPOS, 510.375
SMAStrip_(Nitinol).961, SPOS, 510.375
SMAStrip_(Nitinol).962, SPOS, 510.375
SMAStrip_(Nitinol).963, SPOS, 510.375
SMAStrip_(Nitinol).964, SPOS, 510.375
SMAStrip_(Nitinol).965, SPOS, 510.375
SMAStrip_(Nitinol).966, SPOS, 510.375
SMAStrip_(Nitinol).967, SPOS, 510.375
SMAStrip_(Nitinol).968, SPOS, 510.375
SMAStrip_(Nitinol).969, SPOS, 510.375
SMAStrip_(Nitinol).970, SPOS, 510.375
SMAStrip_(Nitinol).971, SPOS, 510.375
SMAStrip_(Nitinol).972, SPOS, 510.375
SMAStrip_(Nitinol).973, SPOS, 510.375
SMAStrip_(Nitinol).974, SPOS, 510.375
SMAStrip_(Nitinol).975, SPOS, 510.375
SMAStrip_(Nitinol).976, SPOS, 510.375
SMAStrip_(Nitinol).977, SPOS, 510.375
SMAStrip_(Nitinol).978, SPOS, 510.375
SMAStrip_(Nitinol).979, SPOS, 510.375
SMAStrip_(Nitinol).980, SPOS, 510.375
SMAStrip_(Nitinol).981, SPOS, 510.375
SMAStrip_(Nitinol).982, SPOS, 510.375
SMAStrip_(Nitinol).983, SPOS, 510.375
SMAStrip_(Nitinol).984, SPOS, 510.375
SMAStrip_(Nitinol).985, SPOS, 510.375
SMAStrip_(Nitinol).986, SPOS, 510.375
SMAStrip_(Nitinol).987, SPOS, 510.375
SMAStrip_(Nitinol).988, SPOS, 510.375
SMAStrip_(Nitinol).989, SPOS, 510.375
SMAStrip_(Nitinol).990, SPOS, 510.375
SMAStrip_(Nitinol).991, SPOS, 510.375
SMAStrip_(Nitinol).992, SPOS, 510.375
SMAStrip_(Nitinol).993, SPOS, 510.375
SMAStrip_(Nitinol).994, SPOS, 510.375
SMAStrip_(Nitinol).995, SPOS, 510.375
SMAStrip_(Nitinol).996, SPOS, 510.375
SMAStrip_(Nitinol).997, SPOS, 510.375
SMAStrip_(Nitinol).998, SPOS, 510.375
SMAStrip_(Nitinol).999, SPOS, 510.375
SMAStrip_(Nitinol).1000, SPOS, 510.375
** 
** INTERACTIONS
** 
** Interaction: ToVacuum
*Sradiate, amplitude=InstantVacuum
All-Surfaces, R, 4., 0.75
** 
** OUTPUT REQUESTS
** 
*Restart, write, frequency=0
** 
** FIELD OUTPUT: F-Output-HFL
** 
*Output, field
*Element Output, directions=YES
HFL, 
** 
** FIELD OUTPUT: F-Output-1
** 
*Output, field, variable=PRESELECT
** 
** HISTORY OUTPUT: H-Output-1
** 
*Output, history, variable=PRESELECT
*End Step
