*Heading
** Job name: SMAHeatTransient_16 Model name: TowerScenario1_Model
** Generated by: Abaqus/CAE 2025
*Preprint, echo=NO, model=NO, history=NO, contact=NO
*Restart, read, step=18
*Elset, elset=Assembly._PickedSet228, internal, instance=SMAWire_(Nitinol)
  1,  2,  3,  4,  5,  6,  7,  8,  9, 10, 11, 12, 13, 14, 15, 16
 17, 18, 19, 20, 21
** ----------------------------------------------------------------
** 
** STEP: Heat_16
** 
*Step, name=Heat_16, nlgeom=YES, inc=200
*Coupled Temperature-displacement, creep=none, deltmx=5.
0.1, 30., 4e-05, 5.
** 
** LOADS
** 
** Name: SolarFlux   Type: Body heat flux Using Field: FluxField_16
*Dflux
SMAWire_(Nitinol).1, BF, 799556.
SMAWire_(Nitinol).2, BF, 796567.
SMAWire_(Nitinol).3, BF, 814256.
SMAWire_(Nitinol).4, BF, 804733.
SMAWire_(Nitinol).5, BF, 823928.
SMAWire_(Nitinol).6, BF, 793539.
SMAWire_(Nitinol).7, BF, 804549.
SMAWire_(Nitinol).8, BF, 790538.
SMAWire_(Nitinol).9, BF, 776570.
SMAWire_(Nitinol).10, BF, 797692.
SMAWire_(Nitinol).11, BF, 819803.
SMAWire_(Nitinol).12, BF, 843889.
SMAWire_(Nitinol).13, BF, 783842.
SMAWire_(Nitinol).14, BF, 819215.
** 
** OUTPUT REQUESTS
** 
*Restart, write, overlay, frequency=1
** 
** FIELD OUTPUT: F-Output-1
** 
*Output, field, time interval=0.01, time marks=NO
*Node Output
CF, NT, RF, U
*Element Output, directions=YES
LE, PE, PEEQ, PEMAG, S, SDV, TEMP
*Contact Output, variable=PRESELECT
** 
** HISTORY OUTPUT: H-Output-1
** 
*Output, history, variable=PRESELECT
*End Step
