*Heading
** Job name: SMAHeatTransient_14 Model name: TowerScenario1_Model
** Generated by: Abaqus/CAE 2025
*Preprint, echo=NO, model=NO, history=NO, contact=NO
*Restart, read, step=16
*Elset, elset=Assembly._PickedSet226, internal, instance=SMAWire_(Nitinol)
  1,  2,  3,  4,  5,  6,  7,  8,  9, 10, 11, 12, 13, 14, 15, 16
 17, 18, 19, 20, 21
** ----------------------------------------------------------------
** 
** STEP: Heat_14
** 
*Step, name=Heat_14, nlgeom=YES, inc=200
*Coupled Temperature-displacement, creep=none, deltmx=5.
0.1, 30., 4e-05, 5.
** 
** LOADS
** 
** Name: SolarFlux   Type: Body heat flux Using Field: FluxField_14
*Dflux
SMAWire_(Nitinol).1, BF, 844655.
SMAWire_(Nitinol).2, BF, 830288.
SMAWire_(Nitinol).3, BF, 793493.
SMAWire_(Nitinol).4, BF, 791210.
SMAWire_(Nitinol).5, BF, 848163.
SMAWire_(Nitinol).6, BF, 812719.
SMAWire_(Nitinol).7, BF, 853298.
SMAWire_(Nitinol).8, BF, 803838.
SMAWire_(Nitinol).9, BF, 767346.
SMAWire_(Nitinol).10, BF, 825709.
SMAWire_(Nitinol).11, BF, 825034.
SMAWire_(Nitinol).12, BF, 809559.
SMAWire_(Nitinol).13, BF, 777894.
SMAWire_(Nitinol).14, BF, 784186.
** 
** OUTPUT REQUESTS
** 
*Restart, write, overlay, frequency=1
** 
** FIELD OUTPUT: F-Output-1
** 
*Output, field, time interval=0.01, time marks=NO
*Node Output
CF, NT, RF, U
*Element Output, directions=YES
LE, PE, PEEQ, PEMAG, S, SDV, TEMP
*Contact Output, variable=PRESELECT
** 
** HISTORY OUTPUT: H-Output-1
** 
*Output, history, variable=PRESELECT
*End Step
