*Heading
** Job name: SMAHeatTransient_18 Model name: TowerScenario1_Model
** Generated by: Abaqus/CAE 2025
*Preprint, echo=NO, model=NO, history=NO, contact=NO
*Restart, read, step=20
*Elset, elset=Assembly._PickedSet230, internal, instance=SMAWire_(Nitinol)
  1,  2,  3,  4,  5,  6,  7,  8,  9, 10, 11, 12, 13, 14, 15, 16
 17, 18, 19, 20, 21
** ----------------------------------------------------------------
** 
** STEP: Heat_18
** 
*Step, name=Heat_18, nlgeom=YES, inc=200
*Coupled Temperature-displacement, creep=none, deltmx=5.
0.1, 30., 4e-05, 5.
** 
** LOADS
** 
** Name: SolarFlux   Type: Body heat flux Using Field: FluxField_18
*Dflux
SMAWire_(Nitinol).1, BF, 787314.
SMAWire_(Nitinol).2, BF, 769646.
SMAWire_(Nitinol).3, BF, 799899.
SMAWire_(Nitinol).4, BF, 804987.
SMAWire_(Nitinol).5, BF, 794053.
SMAWire_(Nitinol).6, BF, 821831.
SMAWire_(Nitinol).7, BF, 815866.
SMAWire_(Nitinol).8, BF, 794068.
SMAWire_(Nitinol).9, BF, 824297.
SMAWire_(Nitinol).10, BF, 831914.
SMAWire_(Nitinol).11, BF, 847508.
SMAWire_(Nitinol).12, BF, 807295.
SMAWire_(Nitinol).13, BF, 824417.
SMAWire_(Nitinol).14, BF, 805733.
** 
** OUTPUT REQUESTS
** 
*Restart, write, overlay, frequency=1
** 
** FIELD OUTPUT: F-Output-1
** 
*Output, field, time interval=0.01, time marks=NO
*Node Output
CF, NT, RF, U
*Element Output, directions=YES
LE, PE, PEEQ, PEMAG, S, SDV, TEMP
*Contact Output, variable=PRESELECT
** 
** HISTORY OUTPUT: H-Output-1
** 
*Output, history, variable=PRESELECT
*End Step
