*Heading
** Job name: SMAHeatTransient_13 Model name: TowerScenario1_Model
** Generated by: Abaqus/CAE 2025
*Preprint, echo=NO, model=NO, history=NO, contact=NO
*Restart, read, step=15
*Elset, elset=Assembly._PickedSet225, internal, instance=SMAWire_(Nitinol)
  1,  2,  3,  4,  5,  6,  7,  8,  9, 10, 11, 12, 13, 14, 15, 16
 17, 18, 19, 20, 21
** ----------------------------------------------------------------
** 
** STEP: Heat_13
** 
*Step, name=Heat_13, nlgeom=YES, inc=200
*Coupled Temperature-displacement, creep=none, deltmx=5.
0.1, 30., 4e-05, 5.
** 
** LOADS
** 
** Name: SolarFlux   Type: Body heat flux Using Field: FluxField_13
*Dflux
SMAWire_(Nitinol).1, BF, 812815.
SMAWire_(Nitinol).2, BF, 824074.
SMAWire_(Nitinol).3, BF, 826988.
SMAWire_(Nitinol).4, BF, 853595.
SMAWire_(Nitinol).5, BF, 770387.
SMAWire_(Nitinol).6, BF, 831639.
SMAWire_(Nitinol).7, BF, 830752.
SMAWire_(Nitinol).8, BF, 802216.
SMAWire_(Nitinol).9, BF, 813274.
SMAWire_(Nitinol).10, BF, 854055.
SMAWire_(Nitinol).11, BF, 802414.
SMAWire_(Nitinol).12, BF, 818891.
SMAWire_(Nitinol).13, BF, 802145.
SMAWire_(Nitinol).14, BF, 804904.
** 
** OUTPUT REQUESTS
** 
*Restart, write, overlay, frequency=1
** 
** FIELD OUTPUT: F-Output-1
** 
*Output, field, time interval=0.01, time marks=NO
*Node Output
CF, NT, RF, U
*Element Output, directions=YES
LE, PE, PEEQ, PEMAG, S, SDV, TEMP
*Contact Output, variable=PRESELECT
** 
** HISTORY OUTPUT: H-Output-1
** 
*Output, history, variable=PRESELECT
*End Step
