*Heading
** Job name: SMAHeatTransient_03 Model name: TowerScenario1_Model
** Generated by: Abaqus/CAE 2025
*Preprint, echo=NO, model=NO, history=NO, contact=NO
*Restart, read, step=5
*Elset, elset=Assembly._PickedSet215, internal, instance=SMAWire_(Nitinol)
  1,  2,  3,  4,  5,  6,  7,  8,  9, 10, 11, 12, 13, 14, 15, 16
 17, 18, 19, 20, 21
** ----------------------------------------------------------------
** 
** STEP: Heat_03
** 
*Step, name=Heat_03, nlgeom=YES, inc=200
*Coupled Temperature-displacement, creep=none, deltmx=5.
0.1, 30., 4e-05, 5.
** 
** LOADS
** 
** Name: SolarFlux   Type: Body heat flux Using Field: FluxField_03
*Dflux
SMAWire_(Nitinol).1, BF, 760477.
SMAWire_(Nitinol).2, BF, 790387.
SMAWire_(Nitinol).3, BF, 765868.
SMAWire_(Nitinol).4, BF, 798320.
SMAWire_(Nitinol).5, BF, 805129.
SMAWire_(Nitinol).6, BF, 803029.
SMAWire_(Nitinol).7, BF, 801693.
SMAWire_(Nitinol).8, BF, 783025.
SMAWire_(Nitinol).9, BF, 789332.
SMAWire_(Nitinol).10, BF, 778933.
SMAWire_(Nitinol).11, BF, 793708.
SMAWire_(Nitinol).12, BF, 784236.
SMAWire_(Nitinol).13, BF, 781564.
SMAWire_(Nitinol).14, BF, 37764.8
** 
** OUTPUT REQUESTS
** 
*Restart, write, overlay, frequency=1
** 
** FIELD OUTPUT: F-Output-1
** 
*Output, field, time interval=0.01, time marks=NO
*Node Output
CF, NT, RF, U
*Element Output, directions=YES
LE, PE, PEEQ, PEMAG, S, SDV, TEMP
*Contact Output, variable=PRESELECT
** 
** HISTORY OUTPUT: H-Output-1
** 
*Output, history, variable=PRESELECT
*End Step
