*Heading
** Job name: SMAHeatTransient_04 Model name: TowerScenario1_Model
** Generated by: Abaqus/CAE 2025
*Preprint, echo=NO, model=NO, history=NO, contact=NO
*Restart, read, step=6
*Elset, elset=Assembly._PickedSet216, internal, instance=SMAWire_(Nitinol)
  1,  2,  3,  4,  5,  6,  7,  8,  9, 10, 11, 12, 13, 14, 15, 16
 17, 18, 19, 20, 21
** ----------------------------------------------------------------
** 
** STEP: Heat_04
** 
*Step, name=Heat_04, nlgeom=YES, inc=200
*Coupled Temperature-displacement, creep=none, deltmx=5.
0.1, 30., 4e-05, 5.
** 
** LOADS
** 
** Name: SolarFlux   Type: Body heat flux Using Field: FluxField_04
*Dflux
SMAWire_(Nitinol).1, BF, 826566.
SMAWire_(Nitinol).2, BF, 815764.
SMAWire_(Nitinol).3, BF, 810605.
SMAWire_(Nitinol).4, BF, 820279.
SMAWire_(Nitinol).5, BF, 772108.
SMAWire_(Nitinol).6, BF, 810971.
SMAWire_(Nitinol).7, BF, 809660.
SMAWire_(Nitinol).8, BF, 793929.
SMAWire_(Nitinol).9, BF, 793173.
SMAWire_(Nitinol).10, BF, 832043.
SMAWire_(Nitinol).11, BF, 817178.
SMAWire_(Nitinol).12, BF, 801009.
SMAWire_(Nitinol).13, BF, 804619.
SMAWire_(Nitinol).14, BF, 158411.
** 
** OUTPUT REQUESTS
** 
*Restart, write, overlay, frequency=1
** 
** FIELD OUTPUT: F-Output-1
** 
*Output, field, time interval=0.01, time marks=NO
*Node Output
CF, NT, RF, U
*Element Output, directions=YES
LE, PE, PEEQ, PEMAG, S, SDV, TEMP
*Contact Output, variable=PRESELECT
** 
** HISTORY OUTPUT: H-Output-1
** 
*Output, history, variable=PRESELECT
*End Step
