*Heading
 Iteration 8
** Job name: SMAHeatTransient_08 Model name: Model_08
** Generated by: Abaqus/CAE 2025
*Preprint, echo=NO, model=NO, history=NO, contact=NO
**
** PARTS
**
*Part, name="SMAStrip (Nitinol)"
*Node
      1, 0.000960610865,  0.100045159, 0.00865383539
      2,           0., 0.0900193304,           0.
      3,           0., 0.0800162405,           0.
      4,           0., 0.0700131506,           0.
      5,           0., 0.0600100644,           0.
      6,           0., 0.0500069745,           0.
      7,           0., 0.0400038846,           0.
      8,           0., 0.0300007947,           0.
      9,           0., 0.0199977066,           0.
     10,           0., 0.00999461673,           0.
     11, 0.000759497052, -1.54475692e-05, 0.00901815202
     12, 0.0100799222,  0.100075364, 0.00738648511
     13, 0.0103873378, 0.0900689438, 0.0073758834
     14, 0.0104753459, 0.0800564438, 0.00739659835
     15, 0.0105634723, 0.0700439513, 0.0074172793
     16, 0.0106517235, 0.0600314587, 0.00743792532
     17, 0.0107400799, 0.0500189625, 0.00745853875
     18, 0.0108285565, 0.0400064662, 0.00747911865
     19, 0.0109171513, 0.0299939699, 0.00749966362
     20, 0.0110058663,   0.01998147, 0.00752017507
     21, 0.0110946987, 0.00996897183, 0.0075406516
     22, 0.0106840562, -8.10703859e-05, 0.00763304858
     23, 0.0198271777,  0.100096412, 0.00595793407
     24,  0.020167293, 0.0900827721, 0.00593956141
     25, 0.0202753041, 0.0800633058, 0.00595613476
     26, 0.0203834511, 0.0700438321, 0.00597266573
     27, 0.0204917416, 0.0600243583, 0.00598915294
     28,  0.020600142, 0.0500048809, 0.00600560103
     29, 0.0207086746, 0.0399854071, 0.0060220072
     30, 0.0208173394,  0.029965926, 0.00603837101
     31, 0.0209261384, 0.0199464485, 0.00605469244
     32, 0.0210350715, 0.00992697012, 0.00607097102
     33, 0.0205960963, -0.000130168497, 0.00617051544
     34, 0.0297299046,  0.100106902, 0.00442810077
     35, 0.0300857387, 0.0900885835, 0.00440406427
     36, 0.0301970448,  0.080064632, 0.00441880245
     37,  0.030308485,  0.070040673, 0.00443349592
     38, 0.0304200761,  0.060016714, 0.00444814237
     39, 0.0305317659, 0.0499927551, 0.00446275016
     40, 0.0306435898, 0.0399687961, 0.00447731325
     41, 0.0307555478, 0.0299448371, 0.00449183211
     42, 0.0308676399, 0.0199208762, 0.00450630579
     43,  0.030979868, 0.00989691447, 0.00452073477
     44, 0.0304950383, -0.000164520694, 0.0046306802
     45, 0.0396231003,  0.100114264, 0.00282042474
     46, 0.0399937779, 0.0900928527, 0.00279060355
     47, 0.0401078723, 0.0800660104, 0.00280352868
     48, 0.0402221046, 0.0700391531, 0.00281640678
     49, 0.0403364897,  0.060012307, 0.00282923528
     50, 0.0404509678, 0.0499854572, 0.00284202467
     51, 0.0405655764, 0.0399586037, 0.00285476749
     52, 0.0406803228, 0.0299317539, 0.00286746374
     53, 0.0407952033, 0.0199049022, 0.0028801132
     54, 0.0409102179, 0.00987804681, 0.00289271586
     55, 0.0403803363, -0.000185906028, 0.00301366672
     56, 0.0495004095,  0.100118928, 0.00113594008
     57, 0.0498856269, 0.0900958255, 0.00110013608
     58, 0.0500025861, 0.0800674558, 0.00111118215
     59, 0.0501196794,  0.070039086, 0.00112218037
     60, 0.0502369329, 0.0600107089, 0.00113312469
     61, 0.0503542684, 0.0499823354, 0.00114403083
     62, 0.0504717343,  0.039953962, 0.0011548883
     63, 0.0505893417, 0.0299255885, 0.00116569654
     64, 0.0507070795, 0.0198972113, 0.00117645646
     65, 0.0508249514, 0.00986883603, 0.0011871676
     66,  0.050251469, -0.00019610353, 0.00131959887
     67, 0.0593641251,  0.100119919, -0.000625703775
     68, 0.0597633012,  0.090096429, -0.000667632732
     69, 0.0598829165, 0.0800678283, -0.000658481382
     70,  0.060002666, 0.0700392202, -0.000649380381
     71, 0.0601225831, 0.0600106157, -0.000640336017
     72, 0.0602425635,  0.049982015, -0.000631329196
     73, 0.0603626855, 0.0399534069, -0.000622373656
     74, 0.0604829378, 0.0299248043, -0.000613468175
     75,  0.060603328, 0.0198961962, -0.000604614092
     76, 0.0607238561, 0.00986758899, -0.00059581094
     77, 0.0601079166, -0.000196892113, -0.000451399566
     78,  0.069212921,  0.100118473, -0.00246426323
     79, 0.0696255565, 0.0900955871, -0.00251246034
     80, 0.0697477013, 0.0800677538, -0.00250522909
     81, 0.0698699802, 0.0700399131, -0.00249805138
     82,  0.069992438, 0.0600120761, -0.00249093305
     83, 0.0701149404, 0.0499842353, -0.00248385081
     84, 0.0702375844, 0.0399563909, -0.00247682235
     85, 0.0703603625, 0.0299285483, -0.00246984675
     86, 0.0704832748, 0.0199007057, -0.00246292376
     87, 0.0706063285, 0.00987286214, -0.00245605363
     88, 0.0699491724, -0.000190050574, -0.00229920377
     89, 0.0790459216,  0.100115359, -0.00437955139
     90, 0.0794715434, 0.0900938436, -0.00443415483
     91, 0.0795961246, 0.0800675079, -0.00442887377
     92, 0.0797208473, 0.0700411797, -0.00442364858
     93, 0.0798457414, 0.0600148439, -0.00441848487
     94, 0.0799706876, 0.0499885082, -0.00441335887
     95,  0.080095768, 0.0399621762, -0.00440828735
     96,  0.080220975, 0.0299358387, -0.00440326892
     97,  0.080346331, 0.0199094992, -0.00439830637
     98, 0.0804718137, 0.00988315977, -0.00439339923
     99, 0.0797747299, -0.000177357579, -0.00422368711
    100, 0.0888631493,  0.100111015, -0.00637155632
    101, 0.0893012285, 0.0900913998, -0.00643268181
    102, 0.0894281119, 0.0800670981, -0.00642936723
    103, 0.0895551369,  0.070042789, -0.0064261104
    104, 0.0896823332, 0.0600184835, -0.00642291829
    105, 0.0898095667, 0.0499941818, -0.0064197625
    106, 0.0899369344, 0.0399698764, -0.00641666166
    107, 0.0900644362, 0.0299455673, -0.00641361857
    108, 0.0901920795, 0.0199212581, -0.00641063275
    109,  0.090319857, 0.00989694893, -0.00640770281
    110,   0.08958406, -0.000160591793, -0.00622471888
    111, 0.0986620858,  0.100105874, -0.00843973272
    112, 0.0991123021, 0.0900884643, -0.00850752648
    113, 0.0992415398, 0.0800664946, -0.00850623287
    114, 0.0993709043,  0.070044525, -0.00850499608
    115,  0.099500455,  0.060022559, -0.00850383006
    116, 0.0996300355, 0.0500005856, -0.0085026985
    117, 0.0997597501, 0.0399786159, -0.00850162469
    118, 0.0998895913, 0.0299566444, -0.00850060955
    119,  0.100019567, 0.0199346691, -0.00849965122
    120,  0.100149684, 0.0099126948, -0.00849875342
    121, 0.0993766412, -0.000141531884, -0.00830216426
    122,   0.10844478,  0.100100391, -0.0105844885
    123,   0.10890656,  0.090085268, -0.0106590334
    124,  0.109037936, 0.0800657272, -0.0106597561
    125,  0.109169446,  0.070046179, -0.0106605403
    126,  0.109301142,  0.060026627, -0.0106613953
    127,  0.109432854, 0.0500070788, -0.0106622847
    128,  0.109564707, 0.0399875231, -0.0106632365
    129,  0.109696686, 0.0299679749, -0.010664246
    130,  0.109828807,  0.019948421, -0.0106653161
    131,  0.109961055, 0.00992886722, -0.0106664458
    132,  0.109151915, -0.000121956604, -0.0104558822
    133,  0.118210234,  0.100095034, -0.0128056034
    134,  0.118683033, 0.0900820792, -0.0128869787
    135,  0.118816383, 0.0800648108, -0.0128897224
    136,  0.118949875, 0.0700475425, -0.0128925266
    137,  0.119083554, 0.0600302778, -0.0128954081
    138,  0.119217254, 0.0500130132, -0.0128983231
    139,  0.119351074, 0.0399957448, -0.0129012978
    140,  0.119485036, 0.0299784765, -0.0129043348
    141,  0.119619124, 0.0199612062, -0.0129074343
    142,  0.119753346, 0.00994393602, -0.0129105961
    143,  0.118909329, -0.000103644779, -0.0126857245
    144,  0.127957344,   0.10009028, -0.0151028195
    145,  0.128440663, 0.0900791213, -0.0151911005
    146,  0.128575891, 0.0800637901, -0.0151958754
    147,  0.128711239, 0.0700484514, -0.0152007099
    148,  0.128846794, 0.0600331128, -0.0152056273
    149,   0.12898235, 0.0500177778, -0.0152105764
    150,  0.129118025, 0.0400024354, -0.0152155841
    151,  0.129253849, 0.0299870968, -0.0152206598
    152,  0.129389808, 0.0199717544, -0.0152257988
    153,  0.129525885, 0.00995641295, -0.0152309984
    154,  0.128648266, -8.83297835e-05, -0.0149915274
    155,  0.137685329,  0.100086384, -0.0174759347
    156,  0.138178691, 0.0900765806, -0.0175711922
    157,  0.138315678, 0.0800627246, -0.0175780077
    158,  0.138452813, 0.0700488687, -0.0175848864
    159,  0.138590157, 0.0600350127, -0.0175918527
    160,  0.138727471, 0.0500211529, -0.0175988413
    161,   0.13886492, 0.0400072969, -0.0176059008
    162,  0.139002502, 0.0299934372, -0.0176130217
    163,  0.139140218, 0.0199795794, -0.0176202096
    164,  0.139278054, 0.00996571686, -0.0176274609
    165,    0.1383681, -7.66979938e-05, -0.017373126
    166,  0.147393793,  0.100083403, -0.0199248325
    167,  0.147896707, 0.0900745243, -0.0200271253
    168,  0.148035377, 0.0800617337, -0.0200359896
    169,  0.148174167, 0.0700489432, -0.0200449154
    170,  0.148313165, 0.0600361526, -0.0200539324
    171,  0.148452133, 0.0500233546, -0.0200629719
    172,  0.148591235,  0.040010564, -0.0200720821
    173,  0.148730487, 0.0299977679, -0.0200812593
    174,  0.148869842, 0.0199849699, -0.0200904999
    175,  0.149009332, 0.00997217279, -0.0200998113
    176,  0.148068339, -6.83890103e-05, -0.019830374
    177,  0.157082379,  0.100081362, -0.0224494059
    178,  0.157594338, 0.0900730416, -0.0225587748
    179,  0.157734543, 0.0800609291, -0.0225696862
    180,  0.157874882,  0.070048824, -0.0225806646
    181,  0.158015415, 0.0600367077, -0.0225917324
    182,  0.158155918, 0.0500245951, -0.0226028245
    183,   0.15829654,   0.04001249, -0.0226139836
    184,  0.158437312, 0.0300003737, -0.0226252116
    185,  0.158578217, 0.0199882612, -0.0226365123
    186,  0.158719227, 0.00997614674, -0.0226478782
    187,  0.157748431, -6.2996849e-05, -0.0223631263
    188,  0.166750625,  0.100080237,  -0.02504953
    189,  0.167271152, 0.0900721252, -0.0251660105
    190,  0.167412758, 0.0800603628, -0.0251789652
    191,  0.167554498, 0.0700486004, -0.0251919888
    192,  0.167696446, 0.0600368343, -0.0252051037
    193,   0.16783835, 0.0500250645, -0.0252182428
    194,  0.167980388, 0.0400132984, -0.0252314508
    195,   0.16812256, 0.0300015323, -0.0252447296
    196,  0.168264851, 0.0199897643, -0.0252580792
    197,  0.168407276, 0.00997799449, -0.0252714977
    198,   0.16740793, -6.01154679e-05, -0.0249712449
    199,  0.176397994,  0.100079902, -0.0277250465
    200,  0.176926553, 0.0900717154, -0.0278486591
    201,  0.177069455, 0.0800600126, -0.0278636552
    202,  0.177212492, 0.0700483099, -0.0278787222
    203,  0.177355736, 0.0600365996, -0.0278938822
    204,  0.177498922, 0.0500248931, -0.0279090628
    205,  0.177642256, 0.0400131904, -0.0279243197
    206,  0.177785695, 0.0300014839, -0.0279396418
    207,  0.177929282, 0.0199897755, -0.0279550403
    208,  0.178072974, 0.0099780662, -0.027970504
    209,  0.177046344, -5.93388504e-05, -0.0276545919
    210,  0.186023891,  0.100080222, -0.0304757878
    211,  0.186560035, 0.0900717229, -0.0306065548
    212,  0.186704114, 0.0800598562, -0.0306235868
    213,  0.186848328, 0.0700479746, -0.0306406897
    214,  0.186992764, 0.0600361004, -0.0306578949
    215,  0.187137127, 0.0500242226, -0.0306751151
    216,  0.187281623, 0.0400123484, -0.0306924116
    217,  0.187426239, 0.0300004669, -0.030709777
    218,  0.187571004, 0.0199885871, -0.0307272207
    219,  0.187715858, 0.00997670647, -0.0307447314
    220,  0.186663225, -6.0260958e-05, -0.0304130316
    221,  0.195627749,  0.100081071, -0.0333015844
    222,  0.196170986, 0.0900720879, -0.0334395058
    223,  0.196316153, 0.0800598636, -0.0334585793
    224,  0.196461469, 0.0700476393, -0.0334777199
    225,  0.196606979, 0.0600354113, -0.0334969647
    226,  0.196752444, 0.0500231832, -0.0335162282
    227,  0.196897998, 0.0400109552, -0.0335355587
    228,  0.197043702, 0.0299987253, -0.0335549712
    229,   0.19718954, 0.0199864954, -0.0335744545
    230,  0.197335467, 0.00997426361, -0.0335940085
    231,  0.196258098, -6.24757449e-05, -0.033246424
    232,  0.205209062,  0.100082345, -0.0362022743
    233,  0.205758929,  0.090072751, -0.0363473631
    234,  0.205905095, 0.0800600424, -0.0363684669
    235,  0.206051394, 0.0700473413, -0.0363896452
    236,  0.206197903, 0.0600346327, -0.0364109278
    237,  0.206344351, 0.0500219241, -0.0364322253
    238,  0.206490904, 0.0400092155, -0.0364535972
    239,  0.206637591, 0.0299965069, -0.0364750437
    240,  0.206784397, 0.0199837964, -0.0364965685
    241,  0.206931323, 0.00997108407, -0.036518164
    242,  0.205830485, -6.55771364e-05, -0.0361546278
    243,  0.214767277,  0.100083925, -0.0391777009
    244,  0.215323314, 0.0900736377, -0.0393299423
    245,  0.215470403, 0.0800603777, -0.0393530764
    246,  0.215617597, 0.0700471178, -0.0393762887
    247,  0.215765029, 0.0600338504, -0.039399609
    248,  0.215912357, 0.0500205867, -0.0394229367
    249,  0.216059819, 0.0400073193, -0.0394463427
    250,  0.216207385, 0.0299940556, -0.0394698232
    251,    0.2163551, 0.0199807882, -0.039493382
    252,   0.21650292, 0.00996752083, -0.0395170189
    253,  0.215379879, -6.91589739e-05, -0.0391374864
    254,  0.224301904,  0.100085706, -0.0422276966
    255,  0.224863648, 0.0900747031, -0.042387072
    256,  0.225011542,  0.080060862, -0.0424122326
    257,  0.225159571, 0.0700470135, -0.0424374752
    258,  0.225307807, 0.0600331649, -0.0424628183
    259,  0.225455955, 0.0500193201, -0.0424881801
    260,  0.225604221, 0.0400054716, -0.0425136127
    261,  0.225752607, 0.0299916212, -0.0425391272
    262,  0.225901112, 0.0199777726, -0.0425647162
    263,  0.226049721, 0.00996392034, -0.0425903797
    264,  0.224905789, -7.28150044e-05, -0.042194847
    265,  0.233812392,  0.100087576, -0.0453520827
    266,  0.234379381, 0.0900758952, -0.0455185659
    267,  0.234528005, 0.0800614804, -0.0455457494
    268,  0.234676749, 0.0700470805, -0.045573011
    269,  0.234825715, 0.0600326769, -0.0456003807
    270,  0.234974578, 0.0500182658, -0.0456277579
    271,   0.23512356, 0.0400038622, -0.045655217
    272,  0.235272661, 0.0299894512, -0.0456827506
    273,  0.235421881,  0.019975042, -0.0457103625
    274,  0.235571206, 0.00996063277, -0.0457380526
    275,  0.234407619, -7.6138851e-05, -0.0453265272
    276,  0.243298173,  0.100089431, -0.048550684
    277,   0.24386996,  0.090077132, -0.0487242378
    278,   0.24401921, 0.0800622478, -0.0487534292
    279,  0.244168594, 0.0700473562, -0.0487826988
    280,  0.244318187, 0.0600324683, -0.0488120802
    281,  0.244467676, 0.0500175767, -0.0488414727
    282,  0.244617283,  0.040002685, -0.0488709398
    283,  0.244766995, 0.0299877934, -0.048900485
    284,  0.244916826, 0.0199728999, -0.0489301085
    285,  0.245066777, 0.00995800644, -0.0489598103
    286,  0.243884787, -7.87240351e-05, -0.048532337
    287,  0.252758741,  0.100091174, -0.051823318
    288,   0.25333485, 0.0900783911, -0.0520038903
    289,  0.253484637,  0.080063127, -0.0520350784
    290,  0.253634512, 0.0700478777, -0.0520663373
    291,  0.253784657, 0.0600326173, -0.0520977229
    292,  0.253934652, 0.0500173606, -0.052129101
    293,  0.254084796, 0.0400021002, -0.0521605685
    294,  0.254234999, 0.0299868416, -0.0521921068
    295,  0.254385382, 0.0199715793, -0.0522237308
    296,  0.254535824, 0.00995631795, -0.0522554256
    297,  0.253336698, -8.02500872e-05, -0.0518120676
    298,  0.262193561,  0.100092791, -0.0551698022
    299,  0.262773514, 0.0900796354, -0.055357337
    300,  0.262923688, 0.0800641254, -0.0553904884
    301,   0.26307404, 0.0700486153, -0.0554237328
    302,  0.263224572, 0.0600331053, -0.0554570965
    303,  0.263374984, 0.0500175953, -0.0554904491
    304,  0.263525516, 0.0400020853, -0.0555238836
    305,  0.263676137, 0.0299865697, -0.0555573963
    306,  0.263826907, 0.0199710559, -0.0555910021
    307,  0.263977766, 0.00995554216, -0.0556246787
    308,  0.262762696, -8.07414981e-05, -0.0551655143
    309,  0.271602064,  0.100094281, -0.0585899577
    310,  0.272185415, 0.0900808573, -0.0587843694
    311,  0.272335917, 0.0800651982, -0.0588194802
    312,  0.272486538, 0.0700495392, -0.0588546693
    313,  0.272637367, 0.0600338839, -0.0588899776
    314,  0.272788107, 0.0500182249, -0.0589252897
    315,  0.272938907, 0.0400025658, -0.0589606725
    316,  0.273089856, 0.0299869049, -0.0589961484
    317,  0.273240894,  0.019971244, -0.0590316951
    318,  0.273392051, 0.00995558221, -0.0590673275
    319,  0.272162288, -8.03090807e-05, -0.058592476
    320,  0.280983776,  0.100095637, -0.0620835908
    321,  0.281569988, 0.0900820419, -0.0622847937
    322,  0.281720698, 0.0800663307, -0.0623218268
    323,  0.281871527, 0.0700506195, -0.0623589419
    324,  0.282022566, 0.0600349084, -0.0623961873
    325,  0.282173485, 0.0500191972, -0.0624334179
    326,  0.282324493, 0.0400034823, -0.0624707378
    327,  0.282475621, 0.0299877692, -0.0625081286
    328,  0.282626837, 0.0199720543, -0.062545605
    329,  0.282778144, 0.00995633751, -0.0625831559
    330,   0.28153488, -7.90635677e-05, -0.062092755
    331,  0.290338129,  0.100096859, -0.0656505004
    332,  0.290926784, 0.0900831893, -0.0658584088
    333,  0.291077584, 0.0800675079, -0.0658973455
    334,  0.291228503, 0.0700518191, -0.0659363642
    335,  0.291379601, 0.0600361377, -0.0659755021
    336,  0.291530609, 0.0500204563, -0.0660146326
    337,  0.291681677, 0.0400047712, -0.0660538375
    338,  0.291832894, 0.0299890842, -0.0660931394
    339,  0.291984171, 0.0199733991, -0.0661325082
    340,  0.292135596, 0.00995771028, -0.0661719665
    341,  0.290879995, -7.71156192e-05, -0.0656661689
    342,  0.299664557,  0.100097947, -0.0692904964
    343,  0.300255209, 0.0900842696, -0.0695050135
    344,  0.300405979, 0.0800686926, -0.0695458055
    345,  0.300556868,  0.070053108, -0.0695866868
    346,  0.300707966, 0.0600375272, -0.0696277022
    347,  0.300858945, 0.0500219427, -0.0696687028
    348,  0.301009983, 0.0400063582, -0.0697097778
    349,   0.30116117, 0.0299907755, -0.0697509497
    350,  0.301312417, 0.0199751891, -0.0697921813
    351,  0.301463783, 0.00995960366, -0.0698335171
    352,  0.300197124, -7.45758152e-05, -0.0693125129
    353,  0.308962524,  0.100098908, -0.0730033517
    354,  0.309554696, 0.0900852904, -0.0732243657
    355,  0.309705347, 0.0800698772, -0.0732669979
    356,  0.309856117, 0.0700544566, -0.0733097196
    357,  0.310007125, 0.0600390285, -0.0733525902
    358,  0.310157955, 0.0500236116, -0.0733954236
    359,  0.310308903, 0.0400081873, -0.0734383464
    360,  0.310459942, 0.0299927648, -0.0734813437
    361,  0.310611069, 0.0199773423, -0.0735244229
    362,  0.310762316, 0.00996191707, -0.0735675991
    363,  0.309485734, -7.15546412e-05, -0.0730316117
    364,  0.318231463,  0.100099742, -0.0767888725
    365,  0.318824738, 0.0900862366, -0.0770162493
    366,   0.31897521,  0.080071032, -0.0770607069
    367,  0.319125772,   0.07005582, -0.0771052465
    368,  0.319276541, 0.0600406118, -0.0771499202
    369,  0.319427162, 0.0500254035, -0.077194564
    370,  0.319577873, 0.0400101915, -0.0772392973
    371,  0.319728702, 0.0299949814, -0.0772841126
    372,  0.319879591, 0.0199797675, -0.0773290098
    373,    0.3200306, 0.0099645555, -0.0773739889
    374,  0.318745315, -6.81625097e-05, -0.0768232644
    375,  0.327470899,  0.100100473, -0.0806468502
    376,  0.328064829, 0.0900871232, -0.080880478
    377,  0.328215003, 0.0800721571, -0.0809267163
    378,  0.328365237, 0.0700571984, -0.0809730291
    379,  0.328515708,  0.060042236, -0.081019491
    380,  0.328666031, 0.0500272773, -0.0810659155
    381,  0.328816444, 0.0400123149, -0.081112437
    382,  0.328966945, 0.0299973506, -0.0811590254
    383,  0.329117537, 0.0199823864, -0.0812057033
    384,  0.329268217, 0.00996742118, -0.0812524632
    385,  0.327975392, -6.45097389e-05, -0.0806872621
    386,  0.336680263,  0.100101106, -0.0845770612
    387,  0.337274432, 0.0900879279, -0.0848168135
    388,  0.337424189, 0.0800732449, -0.0848647952
    389,  0.337574065, 0.0700585544, -0.0849128664
    390,  0.337724119, 0.0600438677, -0.0849610716
    391,  0.337874055, 0.0500291809, -0.0850092471
    392,   0.33802405, 0.0400144905, -0.0850575045
    393,  0.338174134, 0.0299998019, -0.0851058513
    394,  0.338324308, 0.0199851096, -0.0851542726
    395,  0.338474572, 0.00997041818, -0.0852027833
    396,  0.337175399, -6.07065886e-05, -0.0846234038
    397,  0.345859021,  0.100101665, -0.0885792971
    398,  0.346452981, 0.0900886804, -0.0888250172
    399,  0.346602231, 0.0800742805, -0.0888747126
    400,  0.346751601, 0.0700598732, -0.0889244899
    401,  0.346901208, 0.0600454733, -0.0889744163
    402,  0.347050637, 0.0500310697, -0.0890243053
    403,  0.347200125, 0.0400166661, -0.0890742764
    404,  0.347349733, 0.0300022624, -0.0891243368
    405,   0.34749943,  0.019987857, -0.0891744718
    406,  0.347649187, 0.00997345056, -0.0892246962
    407,  0.346344799, -5.68632568e-05, -0.0886314511
    408,  0.355006605,  0.100102156, -0.0926533192
    409,   0.35559991, 0.0900893733, -0.0929048434
    410,  0.355748624, 0.0800752565,  -0.09295623
    411,  0.355897397, 0.0700611323, -0.0930076838
    412,  0.356046408, 0.0600470193, -0.0930592865
    413,  0.356195271, 0.0500328988, -0.0931108519
    414,  0.356344193,  0.040018782, -0.0931624994
    415,  0.356493205, 0.0300046615, -0.0932142287
    416,  0.356642276,  0.019990541, -0.0932660326
    417,  0.356791437, 0.00997642148, -0.0933179334
    418,  0.355482996, -5.30898869e-05, -0.0927111655
    419,   0.36412245,  0.100102603, -0.0967988893
    420,  0.364714712, 0.0900899991, -0.0970560759
    421,   0.36486274,  0.080076158, -0.0971090868
    422,  0.365010858, 0.0700623095, -0.0971621796
    423,  0.365159184, 0.0600484684, -0.097215414
    424,  0.365307331, 0.0500346236, -0.0972686112
    425,  0.365455568, 0.0400207788, -0.0973218828
    426,  0.365603864, 0.0300069321, -0.0973752365
    427,   0.36575228, 0.0199930854, -0.0974286869
    428,  0.365900755, 0.0099792378, -0.0974822119
    429,  0.364589363, -4.9493643e-05, -0.0968622714
    430,  0.373206049,  0.100103013, -0.101015776
    431,  0.373796821, 0.0900905803, -0.101278439
    432,  0.373944074, 0.0800769925,  -0.10133303
    433,  0.374091387, 0.0700634047, -0.101387702
    434,  0.374238938, 0.0600498132, -0.101442523
    435,  0.374386281, 0.0500362292,   -0.1014973
    436,  0.374533743, 0.0400226377, -0.101552166
    437,  0.374681264, 0.0300090481, -0.101607114
    438,  0.374828845, 0.0199954566, -0.101662129
    439,  0.374976546, 0.00998186506, -0.101717241
    440,  0.373663306, -4.611447e-05, -0.101084515
    441,  0.382256866,  0.100103393, -0.105303742
    442,   0.38284567, 0.0900911167,  -0.10557168
    443,  0.382992059, 0.0800777748, -0.105627812
    444,  0.383138478,  0.070064418, -0.105684027
    445,  0.383285135, 0.0600510761, -0.105740383
    446,  0.383431584, 0.0500377268, -0.105796687
    447,  0.383578122, 0.0400243774, -0.105853066
    448,  0.383724749, 0.0300110299, -0.105909549
    449,  0.383871436, 0.0199976787, -0.105966099
    450,  0.384018213, 0.00998432841, -0.106022738
    451,  0.382704258, -4.29249703e-05, -0.105377629
    452,  0.391274303,  0.100103758, -0.109662548
    453,  0.391860813, 0.0900916308, -0.109935574
    454,  0.392006159, 0.0800785124, -0.109993175
    455,  0.392151594, 0.0700653866, -0.110050872
    456,  0.392297268, 0.0600522645, -0.110108703
    457,  0.392442703, 0.0500391461,  -0.11016649
    458,  0.392588228,  0.040026024, -0.110224351
    459,  0.392733842, 0.0300129037, -0.110282302
    460,  0.392879516, 0.0199997798,  -0.11034032
    461,  0.393025279, 0.00998665672, -0.110398427
    462,  0.391711652, -3.98947159e-05,  -0.10974136
    463,  0.400257885,  0.100104116, -0.114091948
    464,  0.400841624, 0.0900921151, -0.114369854
    465,  0.400985867, 0.0800792128,  -0.11442887
    466,  0.401130199, 0.0700663179, -0.114487983
    467,  0.401274741, 0.0600534081, -0.114547238
    468,  0.401419103, 0.0500405058,  -0.11460644
    469,  0.401563525, 0.0400275961, -0.114665724
    470,  0.401708007, 0.0300146919, -0.114725091
    471,  0.401852578, 0.0200017858, -0.114784531
    472,  0.401997209, 0.00998887792, -0.114844061
    473,  0.400684983, -3.69931877e-05, -0.114175469
    474,  0.409207046,  0.100104474, -0.118591666
    475,  0.409787595, 0.0900926068, -0.118874237
    476,  0.409930646, 0.0800799131, -0.118934624
    477,  0.410073787, 0.0700672045, -0.118995108
    478,  0.410217136, 0.0600545146, -0.119055726
    479,  0.410360247, 0.0500418171, -0.119116291
    480,  0.410503477,  0.040029116, -0.119176939
    481,  0.410646737, 0.0300164185, -0.119237661
    482,  0.410790116, 0.0200037193, -0.119298473
    483,  0.410933524, 0.00999101996, -0.119359352
    484,  0.409623772, -3.41897685e-05, -0.118679717
    485,  0.418121189,  0.100104839,  -0.12316145
    486,  0.418698132, 0.0900930986, -0.123448461
    487,  0.418839931, 0.0800805986, -0.123510167
    488,  0.418981791, 0.0700681061,  -0.12357197
    489,  0.419123858, 0.0600556061, -0.123633906
    490,  0.419265658, 0.0500431098, -0.123695768
    491,  0.419407576, 0.0400306098,  -0.12375772
    492,  0.419549584, 0.0300181117, -0.123819761
    493,  0.419691622, 0.0200056117, -0.123881876
    494,   0.41983372, 0.00999311171, -0.123944059
    495,  0.418527484, -3.1453772e-05, -0.123253874
    496,  0.426999807,  0.100105226, -0.127801031
    497,  0.427572787, 0.0900936127, -0.128092274
    498,  0.427713215, 0.0800813064, -0.128155231
    499,  0.427853703, 0.0700690076, -0.128218293
    500,   0.42799437,  0.060056705, -0.128281489
    501,  0.428134859, 0.0500443988,  -0.12834461
    502,  0.428275377, 0.0400320962, -0.128407821
    503,  0.428415984, 0.0300197918, -0.128471106
    504,  0.428556621, 0.0200074874, -0.128534466
    505,  0.428697377, 0.00999518018, -0.128597915
    506,  0.427395672, -2.87544171e-05, -0.127897695
    507,  0.435842305,  0.100105658, -0.132510126
    508,  0.436410993,  0.090094164, -0.132805377
    509,  0.436549962, 0.0800820515, -0.132869542
    510,  0.436689019, 0.0700699389,  -0.13293381
    511,  0.436828226, 0.0600578263, -0.132998213
    512,  0.436967224, 0.0500457138, -0.133062527
    513,  0.437106311, 0.0400336012, -0.133126944
    514,  0.437245458, 0.0300214868, -0.133191422
    515,  0.437384665, 0.0200093724, -0.133256003
    516,  0.437523931, 0.00999725796, -0.133320644
    517,  0.436227828, -2.60608431e-05, -0.132610947
    518,  0.444648236,   0.10010615, -0.137288496
    519,  0.445212215,  0.090094775, -0.137587503
    520,  0.445349663, 0.0800828487, -0.137652829
    521,  0.445487171, 0.0700709224,  -0.13771823
    522,  0.445624888, 0.0600589998, -0.137783796
    523,  0.445762366, 0.0500470772, -0.137849271
    524,  0.445899934, 0.0400351509, -0.137914836
    525,  0.446037531, 0.0300232247, -0.137980476
    526,  0.446175188, 0.0200112984, -0.138046175
    527,  0.446312934, 0.00999937207, -0.138111979
    528,  0.445023447, -2.33421088e-05, -0.137393355
    529,  0.453416973,  0.100106709, -0.142135814
    530,  0.453975916,  0.090095453, -0.142438352
    531,  0.454111785, 0.0800837204, -0.142504781
    532,  0.454247713, 0.0700719804,   -0.1425713
    533,   0.45438379, 0.0600602478, -0.142637953
    534,  0.454519719, 0.0500485078, -0.142704532
    535,  0.454655647, 0.0400367714, -0.142771184
    536,  0.454791665, 0.0300250314, -0.142837927
    537,  0.454927713, 0.0200132914, -0.142904729
    538,  0.455063879, 0.0100015514,  -0.14297162
    539,  0.453781992, -2.05671986e-05, -0.142244682
    540,  0.462147981,  0.100107364, -0.147051826
    541,  0.462701529, 0.0900962353, -0.147357643
    542,  0.462835759,  0.080084689,  -0.14742513
    543,  0.462970018, 0.0700731352, -0.147492677
    544,  0.463104457, 0.0600615889, -0.147560373
    545,  0.463238686, 0.0500500351, -0.147628009
    546,  0.463372976, 0.0400384851, -0.147695705
    547,  0.463507324,  0.030026935, -0.147763476
    548,  0.463641733, 0.0200153813, -0.147831336
    549,  0.463776171, 0.0100038284,  -0.14789927
    550,  0.462502897, -1.77050115e-05, -0.147164613
    551,  0.470840722,  0.100108132, -0.152036205
    552,  0.471388549, 0.0900971293, -0.152345046
    553,   0.47152102, 0.0800857618, -0.152413517
    554,  0.471653551, 0.0700744092, -0.152482063
    555,  0.471786261, 0.0600630455, -0.152550772
    556,  0.471918792, 0.0500516854, -0.152619377
    557,  0.472051352, 0.0400403216, -0.152688071
    558,  0.472183943, 0.0300289597,  -0.15275684
    559,  0.472316623,  0.020017596, -0.152825668
    560,  0.472449362, 0.0100062303, -0.152894586
    561,  0.471185625, -1.47243836e-05, -0.152152836
    562,  0.479494572,  0.100109018, -0.157088637
    563,  0.480036318, 0.0900981501, -0.157400236
    564,  0.480167001, 0.0800869763,  -0.15746966
    565,  0.480297744,   0.07007581, -0.157539129
    566,  0.480428666, 0.0600646399, -0.157608762
    567,  0.480559379, 0.0500534698, -0.157678306
    568,  0.480690122, 0.0400422961, -0.157747924
    569,  0.480820954, 0.0300311241, -0.157817617
    570,  0.480951816, 0.0200199522, -0.157887384
    571,  0.481082708, 0.0100087794, -0.157957211
    572,   0.47982955, -1.16031551e-05, -0.157209024
    573,  0.488109052,  0.100110032, -0.162208825
    574,  0.488644361, 0.0900992975, -0.162522927
    575,  0.488773167, 0.0800883248, -0.162593201
    576,  0.488902062, 0.0700773373, -0.162663549
    577,  0.489031106, 0.0600663647, -0.162734032
    578,  0.489159942, 0.0500553846, -0.162804455
    579,  0.489288837, 0.0400444046, -0.162874937
    580,  0.489417762, 0.0300334245, -0.162945494
    581,  0.489546746, 0.0200224444, -0.163016111
    582,   0.48967579, 0.0100114625, -0.163086817
    583,  0.488434047, -8.355506e-06, -0.162332848
    584,  0.496683598,  0.100111157, -0.167396471
    585,  0.497212142, 0.0901005641, -0.167712763
    586,   0.49733904, 0.0800897777, -0.167783856
    587,  0.497465938, 0.0700789914, -0.167854995
    588,  0.497593045,  0.060068205, -0.167926297
    589,  0.497719944, 0.0500574149, -0.167997494
    590,  0.497846872, 0.0400466248, -0.168068767
    591,   0.49797383, 0.0300358366, -0.168140113
    592,  0.498100847, 0.0200250484, -0.168211535
    593,  0.498227924, 0.0100142583, -0.168283015
    594,  0.496998549, -5.00468832e-06,  -0.16752395
    595,  0.505217671,  0.100112393, -0.172651261
    596,  0.505739152, 0.0901019499, -0.172969475
    597,  0.505864024, 0.0800913423, -0.173041284
    598,  0.505988896, 0.0700807422, -0.173113137
    599,  0.506113946, 0.0600701459,  -0.17318517
    600,  0.506238818, 0.0500595458, -0.173257098
    601,   0.50636369, 0.0400489494, -0.173329085
    602,  0.506488621, 0.0300383475, -0.173401147
    603,  0.506613612, 0.0200277455, -0.173473299
    604,  0.506738663, 0.0100171454, -0.173545495
    605,   0.50552249, -1.57390741e-06, -0.172782019
    606,  0.513710797,  0.100113735, -0.177972883
    607,  0.514224768, 0.0901034176, -0.178292692
    608,  0.514347553, 0.0800930113, -0.178365156
    609,  0.514470339,   0.07008259, -0.178437665
    610,  0.514593303, 0.0600721762, -0.178510338
    611,  0.514716029, 0.0500617623, -0.178582907
    612,  0.514838815, 0.0400513522, -0.178655565
    613,   0.51496166, 0.0300409328, -0.178728282
    614,  0.515084505,  0.020030519, -0.178801045
    615,   0.51520741, 0.0100201024, -0.178873882
    616,  0.514005363, 1.91367826e-06,  -0.17810674
    617,  0.522162318,   0.10011518, -0.183360994
    618,    0.5226686, 0.0901049972, -0.183682114
    619,   0.52278918, 0.0800947547, -0.183755159
    620,   0.52290976, 0.0700845271, -0.183828235
    621,  0.523030519, 0.0600742921, -0.183901474
    622,    0.5231511, 0.0500640571, -0.183974624
    623,   0.52327168, 0.0400538184, -0.184047833
    624,  0.523392379, 0.0300435815, -0.184121132
    625,  0.523513019, 0.0200333465, -0.184194475
    626,  0.523633718, 0.0100231087, -0.184267893
    627,  0.522446632, 5.4349548e-06, -0.183497772
    628,  0.530571818,  0.100116715, -0.188815281
    629,  0.531070054, 0.0901066586, -0.189137384
    630,  0.531188369,  0.080096595, -0.189210922
    631,  0.531306684, 0.0700865313, -0.189284503
    632,  0.531425178,  0.060076464, -0.189358249
    633,  0.531543493,  0.050066404, -0.189431906
    634,  0.531661868, 0.0400563367, -0.189505607
    635,  0.531780183,  0.030046273, -0.189579368
    636,  0.531898618, 0.0200362075, -0.189653203
    637,  0.532017052,  0.010026142, -0.189727113
    638,  0.530845702, 8.96685287e-06, -0.188954785
    639,  0.538938642,  0.100118332, -0.194335371
    640,  0.539428532, 0.0901083946,  -0.19465816
    641,  0.539544523, 0.0800984949, -0.194732115
    642,  0.539660513, 0.0700885877, -0.194806129
    643,  0.539776742, 0.0600786954, -0.194880292
    644,  0.539892673,  0.050068792, -0.194954365
    645,  0.540008664, 0.0400588922, -0.195028469
    646,  0.540124714, 0.0300489888, -0.195102677
    647,  0.540240765, 0.0200390872, -0.195176914
    648,  0.540356934, 0.0100291828, -0.195251241
    649,  0.539202154, 1.24863418e-05, -0.194477454
    650,  0.547262371,  0.100120038, -0.199920952
    651,  0.547743559,   0.09011022, -0.200244069
    652,  0.547857165, 0.0801004618, -0.200318381
    653,  0.547970772, 0.0700907186, -0.200392738
    654,  0.548084557, 0.0600809641, -0.200467259
    655,  0.548198164, 0.0500712134,  -0.20054166
    656,   0.54831177, 0.0400614627, -0.200616136
    657,  0.548425436, 0.0300517119, -0.200690657
    658,  0.548539102, 0.0200419612, -0.200765252
    659,  0.548652768, 0.0100322086, -0.200839892
    660,  0.547515392, 1.59704305e-05, -0.200065449
    661,   0.55554235,  0.100121811, -0.205571651
    662,  0.556014657, 0.0901120901, -0.205894828
    663,   0.55612576, 0.0801024809, -0.205969363
    664,  0.556236923, 0.0700928643, -0.206044003
    665,  0.556348264, 0.0600832589, -0.206118792
    666,  0.556459427,  0.050073646, -0.206193462
    667,   0.55657053, 0.0400640368, -0.206268162
    668,  0.556681693,  0.030054424, -0.206342965
    669,  0.556792915, 0.0200448111, -0.206417814
    670,  0.556904137, 0.0100351982, -0.206492737
    671,  0.555784941, 1.93961623e-05, -0.205718413
    672,  0.563778043,  0.100123666, -0.211287096
    673,  0.564241111, 0.0901140347, -0.211609945
    674,  0.564349771, 0.0801045448, -0.211684719
    675,  0.564458489, 0.0700950623, -0.211759552
    676,  0.564567268, 0.0600855723,  -0.21183449
    677,  0.564675868, 0.0500760861, -0.211909369
    678,  0.564784467, 0.0400665998, -0.211984277
    679,  0.564893186,  0.030057108, -0.212059259
    680,  0.565001845, 0.0200476199, -0.212134272
    681,  0.565110564, 0.0100381318, -0.212209359
    682,  0.564010262, 2.27406108e-05, -0.211436018
    683,  0.571968973,  0.100125581, -0.217066929
    684,  0.572422624,  0.090116024, -0.217389151
    685,   0.57252866, 0.0801066384, -0.217464015
    686,  0.572634816, 0.0700972602, -0.217538968
    687,  0.572741032, 0.0600878857,  -0.21761404
    688,  0.572847068, 0.0500785075, -0.217688993
    689,  0.572953105, 0.0400691256,  -0.21776402
    690,  0.573059201, 0.0300597493, -0.217839122
    691,  0.573165298, 0.0200503673, -0.217914253
    692,  0.573271453, 0.0100409882, -0.217989445
    693,  0.572190762, 2.59808803e-05, -0.217217878
    694,  0.580114603,  0.100127548, -0.222910777
    695,  0.580558538, 0.0901180506, -0.223232016
    696,  0.580661952, 0.0801087692, -0.223306924
    697,  0.580765426, 0.0700994805, -0.223381892
    698,  0.580869079, 0.0600901879, -0.223457024
    699,  0.580972433, 0.0500809029, -0.223532021
    700,  0.581075847, 0.0400716141, -0.223607048
    701,  0.581179321, 0.0300623234,  -0.22368215
    702,  0.581282794, 0.0200530365, -0.223757327
    703,  0.581386268, 0.0100437459, -0.223832548
    704,  0.580326021, 2.90956996e-05, -0.223063618
    705,  0.588214338,  0.100129575, -0.228818253
    706,   0.58864826, 0.0901201218, -0.229138166
    707,  0.588749051, 0.0801109076, -0.229213029
    708,  0.588849843, 0.0701017007, -0.229287982
    709,  0.588950753, 0.0600924864, -0.229363024
    710,  0.589051545, 0.0500832759, -0.229437992
    711,  0.589152217, 0.0400740579, -0.229512975
    712,  0.589253008, 0.0300648473, -0.229588032
    713,  0.589353859,  0.020055633, -0.229663163
    714,  0.589454651, 0.0100464197,  -0.22973831
    715,  0.588415384, 3.21006082e-05, -0.228972882
    716,    0.5962677,  0.100131638, -0.234788984
    717,   0.59669143, 0.0901222229, -0.235107198
    718,  0.596789479, 0.0801130831, -0.235181957
    719,  0.596887529, 0.0701039284, -0.235256776
    720,  0.596985757, 0.0600947887, -0.235331699
    721,  0.597083747, 0.0500856414, -0.235406533
    722,  0.597181737, 0.0400764979, -0.235481396
    723,  0.597279787,  0.030067347, -0.235556334
    724,  0.597377837, 0.0200582016, -0.235631287
    725,  0.597475946, 0.0100490535, -0.235706344
    726,  0.596458375, 3.50480186e-05, -0.234945267
    727,  0.604274154,  0.100133725, -0.240822598
    728,  0.604687393, 0.0901243538, -0.241138771
    729,  0.604782641, 0.0801152736, -0.241213307
    730,  0.604878008,  0.070106186, -0.241287932
    731,  0.604973376, 0.0600971095, -0.241362631
    732,  0.605068564, 0.0500880294, -0.241437227
    733,  0.605163813, 0.0400789455, -0.241511911
    734,  0.605259061, 0.0300698616, -0.241586611
    735,  0.605354369, 0.0200607795, -0.241661355
    736,  0.605449677, 0.0100516947, -0.241736189
    737,  0.604454517, 3.79919475e-05, -0.240980372
    738,  0.612233162,  0.100135826, -0.246918693
    739,  0.612635791,  0.090126507, -0.247232467
    740,  0.612728238, 0.0801174864, -0.247306719
    741,  0.612820685, 0.0701084808, -0.247381017
    742,  0.612913191, 0.0600994639, -0.247455418
    743,  0.613005638, 0.0500904508,  -0.24752976
    744,  0.613098025,  0.040081434, -0.247604102
    745,  0.613190472, 0.0300724208, -0.247678518
    746,  0.613282859, 0.0200634077, -0.247752964
    747,  0.613375306, 0.0100543918,  -0.24782747
    748,  0.612403154, 4.09863896e-05, -0.247077823
    749,  0.620144248,  0.100137934, -0.253076881
    750,   0.62053597, 0.0901286677, -0.253387868
    751,  0.620625496, 0.0801197365, -0.253461748
    752,  0.620715082, 0.0701107979, -0.253535658
    753,  0.620804787,  0.060101863, -0.253609717
    754,  0.620894313, 0.0500929281, -0.253683627
    755,  0.620983839, 0.0400839932, -0.253757626
    756,  0.621073306, 0.0300750583, -0.253831595
    757,  0.621162891, 0.0200661235, -0.253905654
    758,  0.621252477, 0.0100571876, -0.253979772
    759,  0.620303929, 4.40853437e-05, -0.253237218
    760,  0.628006935,  0.100140028, -0.259296805
    761,  0.628387511, 0.0901308507, -0.259604663
    762,  0.628474176, 0.0801220015, -0.259678066
    763,  0.628560841, 0.0701131672, -0.259751499
    764,  0.628647566, 0.0601043291, -0.259825051
    765,  0.628734112, 0.0500954911, -0.259898484
    766,  0.628820717, 0.0400866494, -0.259972006
    767,  0.628907323, 0.0300778095, -0.260045528
    768,  0.628993928, 0.0200689696,  -0.26011911
    769,  0.629080594, 0.0100601297, -0.260192752
    770,  0.628156185, 4.73427826e-05, -0.259458125
    771,  0.635820687,  0.100142106, -0.265578002
    772,  0.636189938, 0.0901330262, -0.265882343
    773,  0.636273623, 0.0801243037,  -0.26595518
    774,  0.636357307, 0.0701155886, -0.266028047
    775,  0.636441052, 0.0601068661, -0.266101062
    776,  0.636524677, 0.0500981472, -0.266173929
    777,  0.636608243, 0.0400894284, -0.266246855
    778,  0.636691868, 0.0300807077, -0.266319841
    779,  0.636775494, 0.0200719871, -0.266392827
    780,  0.636859179, 0.0100632673, -0.266465902
    781,  0.635959506, 5.08120829e-05, -0.265740216
    782,  0.643584967,   0.10014417, -0.271920145
    783,  0.643942773, 0.0901352242, -0.272220582
    784,  0.644023418, 0.0801266432, -0.272292733
    785,  0.644104064, 0.0701180771, -0.272364974
    786,  0.644184828, 0.0601095073, -0.272437334
    787,  0.644265354, 0.0501009338, -0.272509545
    788,  0.644345939,  0.040092364, -0.272581786
    789,  0.644426525, 0.0300837904, -0.272654086
    790,   0.64450711, 0.0200752169, -0.272726446
    791,  0.644587755, 0.0100666443, -0.272798836
    792,  0.643713355, 5.45455005e-05, -0.272083044
    793,  0.651299357,  0.100146204, -0.278322756
    794,  0.651645482, 0.0901374295, -0.278618932
    795,  0.651723087, 0.0801290348, -0.278690368
    796,  0.651800632, 0.0701206475, -0.278761834
    797,  0.651878297, 0.0601122603, -0.278833389
    798,  0.651955843, 0.0501038693, -0.278904885
    799,  0.652033329, 0.0400954783, -0.278976411
    800,  0.652110815, 0.0300870873, -0.279047936
    801,  0.652188361, 0.0200786963, -0.279119551
    802,  0.652265966, 0.0100703053, -0.279191196
    803,  0.651417315, 5.85951602e-05, -0.278486192
    804,  0.658963263,  0.100148216, -0.284785479
    805,  0.659297585, 0.0901396573, -0.285076976
    806,  0.659372091, 0.0801314861, -0.285147578
    807,  0.659446537, 0.0701233149, -0.285218209
    808,  0.659521103, 0.0601151474,  -0.28528896
    809,   0.65959549, 0.0501069799, -0.285359561
    810,  0.659669876, 0.0400988087, -0.285430223
    811,  0.659744322, 0.0300906394, -0.285500973
    812,  0.659818709,   0.02008247, -0.285571694
    813,  0.659893155, 0.0100742998, -0.285642475
    814,  0.659070849, 6.30131908e-05, -0.284949273
    815,  0.666576326,  0.100150205, -0.291307837
    816,  0.666898608, 0.0901419073, -0.291594267
    817,  0.666969955, 0.0801339969, -0.291663945
    818,  0.667041242, 0.0701260939, -0.291733652
    819,  0.667112708, 0.0601181947, -0.291803449
    820,  0.667183936,  0.050110288, -0.291873157
    821,  0.667255223,  0.040102385, -0.291942894
    822,   0.66732651, 0.0300944801, -0.292012662
    823,  0.667397797, 0.0200865772, -0.292082489
    824,  0.667469084, 0.0100786723, -0.292152315
    825,  0.666673481, 6.78517245e-05, -0.291471869
    826,   0.67413789,  0.100152172, -0.297889441
    827,  0.674448013, 0.0901441798, -0.298170388
    828,  0.674516201, 0.0801365897, -0.298239052
    829,  0.674584329, 0.0701289922, -0.298307717
    830,  0.674652576, 0.0601214133,  -0.29837653
    831,  0.674720645, 0.0501138233, -0.298445195
    832,  0.674788773, 0.0401062369, -0.298513919
    833,  0.674856901, 0.0300986469, -0.298582673
    834,   0.67492497, 0.0200910587, -0.298651427
    835,  0.674993098, 0.0100834677,  -0.29872027
    836,  0.674224675, 7.31628897e-05, -0.298053563
    837,  0.681647599,  0.100154109, -0.304529846
    838,  0.681945443, 0.0901464745, -0.304804951
    839,  0.682010412, 0.0801392496, -0.304872513
    840,  0.682075322,  0.070132032, -0.304940045
    841,   0.68214035, 0.0601248108, -0.305007726
    842,   0.68220526, 0.0501175895, -0.305075318
    843,   0.68227011, 0.0401103683, -0.305142879
    844,  0.682335019, 0.0301031452, -0.305210531
    845,  0.682399929, 0.0200959221, -0.305278212
    846,  0.682464838, 0.0100886999, -0.305345893
    847,  0.681724012, 7.89596743e-05, -0.304693937
    848,  0.689104915,  0.100156024, -0.311228633
    849,  0.689390361, 0.0901487991, -0.311497509
    850,  0.689452052, 0.0801419839,  -0.31156382
    851,  0.689513743, 0.0701351613, -0.311630189
    852,  0.689575553, 0.0601283386, -0.311696649
    853,  0.689637184, 0.0501215234, -0.311762989
    854,  0.689698815, 0.0401147008, -0.311829358
    855,  0.689760506,   0.03010788, -0.311895818
    856,  0.689822137, 0.0201010611, -0.311962247
    857,  0.689883828, 0.0100942394, -0.312028736
    858,  0.689171016, 8.50981596e-05, -0.311392516
    859,  0.696509421,  0.100157939, -0.317985356
    860,  0.696782231, 0.0901511312, -0.318247586
    861,  0.696840644, 0.0801447332, -0.318312585
    862,  0.696899116, 0.0701383352, -0.318377644
    863,  0.696957648, 0.0601319298, -0.318442792
    864,   0.69701606, 0.0501255281,  -0.31850788
    865,  0.697074413, 0.0401191302, -0.318572938
    866,  0.697132826, 0.0301127303, -0.318638057
    867,  0.697191179, 0.0201063268, -0.318703175
    868,  0.697249591,  0.010099926, -0.318768352
    869,  0.696565151, 9.1395108e-05, -0.318148881
    870,  0.703860581,  0.100159854, -0.324799567
    871,  0.704120696, 0.0901534781, -0.325054735
    872,   0.70417583, 0.0801474825, -0.325118363
    873,  0.704231024, 0.0701415017,  -0.32518205
    874,  0.704286277,  0.060135521, -0.325245798
    875,  0.704341352, 0.0501295365, -0.325309426
    876,  0.704396427, 0.0401235521, -0.325373113
    877,  0.704451501, 0.0301175676, -0.325436801
    878,  0.704506636, 0.0201115813, -0.325500548
    879,   0.70456171, 0.0101055969, -0.325564325
    880,   0.70390594, 9.76672673e-05, -0.324962586
    881,  0.711157918,  0.100161783, -0.331670851
    882,  0.711405277, 0.0901558101, -0.331918567
    883,  0.711457133, 0.0801502168, -0.331980705
    884,  0.711508989,  0.070144631, -0.332042873
    885,  0.711560845, 0.0601390377,  -0.33210513
    886,  0.711612642, 0.0501334481, -0.332167298
    887,  0.711664438, 0.0401278585, -0.332229465
    888,  0.711716235, 0.0301222708, -0.332291663
    889,  0.711767972, 0.0201166794,  -0.33235392
    890,  0.711819768, 0.0101110907, -0.332416147
    891,  0.711193025, 0.000103731385, -0.331833214
    892,  0.718401074,  0.100163735, -0.338598758
    893,  0.718635499, 0.0901581272, -0.338838607
    894,  0.718684018, 0.0801528841, -0.338899136
    895,  0.718732476, 0.0701476559, -0.338959694
    896,  0.718781054, 0.0601424165, -0.339020371
    897,  0.718829513, 0.0501371846,  -0.33908093
    898,  0.718877912, 0.0401319489, -0.339141518
    899,   0.71892637, 0.0301267151, -0.339202136
    900,  0.718974829, 0.0201214794, -0.339262754
    901,  0.719023287, 0.0101162456, -0.339323431
    902,   0.71842587, 0.00010940418, -0.338760257
    903,  0.725589454,  0.100165725, -0.345582843
    904,  0.725810945, 0.0901604146, -0.345814377
    905,  0.725856066, 0.0801554769, -0.345873237
    906,  0.725901186, 0.0701505318, -0.345932096
    907,  0.725946426, 0.0601455979, -0.345991075
    908,  0.725991488, 0.0501406565, -0.346049964
    909,  0.726036549, 0.0401357152, -0.346108824
    910,   0.72608161, 0.0301307775, -0.346167773
    911,   0.72612673, 0.0201258399, -0.346226722
    912,  0.726171792, 0.0101208985, -0.346285641
    913,  0.725603998, 0.000114502458, -0.345743328
    914,    0.7327227,  0.100167766, -0.352622569
    915,  0.732931137, 0.0901626796,  -0.35284543
    916,   0.73297286, 0.0801579505, -0.352902532
    917,  0.733014643, 0.0701532289, -0.352959603
    918,  0.733056426, 0.0601485111, -0.353016794
    919,   0.73309809, 0.0501437858, -0.353073835
    920,  0.733139813, 0.0401390642, -0.353130966
    921,  0.733181536, 0.0301343389, -0.353188097
    922,    0.7332232, 0.0201296136, -0.353245229
    923,  0.733264923, 0.0101248901, -0.353302419
    924,  0.732726932, 0.000118843804, -0.352781922
    925,  0.739800274,  0.100169882, -0.359717548
    926,  0.739995599, 0.0901649222,  -0.35993132
    927,  0.740033984, 0.0801603049, -0.359986514
    928,   0.74007231, 0.0701557025, -0.360041708
    929,  0.740110695, 0.0601511002, -0.360096991
    930,  0.740149021, 0.0501464903, -0.360152215
    931,  0.740187287, 0.0401418842, -0.360207409
    932,  0.740225613, 0.0301372763, -0.360262632
    933,  0.740263939, 0.0201326683, -0.360317916
    934,  0.740302265, 0.0101280613, -0.360373199
    935,  0.739794314, 0.00012224626, -0.359875619
    936,  0.746821821,  0.100172088, -0.366867304
    937,  0.747003913,  0.090167135, -0.367071539
    938,  0.747038901, 0.0801625177, -0.367124766
    939,  0.747073829, 0.0701579079, -0.367177993
    940,  0.747108817, 0.0601533018,  -0.36723128
    941,  0.747143745,  0.050148692, -0.367284507
    942,  0.747178614, 0.0401440822, -0.367337763
    943,  0.747213483, 0.0301394705,  -0.36739099
    944,  0.747248411, 0.0201348606, -0.367444277
    945,   0.74728334, 0.0101302499, -0.367497563
    946,  0.746805668, 0.000124527956, -0.367023945
    947,  0.753786802,  0.100174397,  -0.37407133
    948,  0.753955662, 0.0901693106, -0.374265641
    949,  0.753987193, 0.0801645592, -0.374316782
    950,  0.754018724, 0.0701598078, -0.374367923
    951,  0.754050314, 0.0601550601, -0.374419153
    952,  0.754081786,  0.050150305, -0.374470294
    953,  0.754113317, 0.0401455536, -0.374521464
    954,  0.754144788, 0.0301408023, -0.374572635
    955,  0.754176259, 0.0201360509, -0.374623835
    956,   0.75420773, 0.0101312995, -0.374675035
    957,  0.753760576, 0.000125508057, -0.374226421
    958,  0.760694861,  0.100176834, -0.381329209
    959,  0.760850489, 0.0901714638, -0.381513178
    960,  0.760878563, 0.0801664144, -0.381562114
    961,  0.760906696, 0.0701613575, -0.381611139
    962,   0.76093483, 0.0601563081, -0.381660163
    963,  0.760962844, 0.0501512587, -0.381709129
    964,  0.760990918, 0.0401462056, -0.381758094
    965,  0.761018991, 0.0301411543, -0.381807089
    966,  0.761047006,  0.020136103, -0.381856114
    967,  0.761075079, 0.0101310508, -0.381905168
    968,  0.760658503, 0.00012500622, -0.381482571
    969,  0.767545581,  0.100179426, -0.388640463
    970,  0.767687857, 0.0901735872, -0.388813674
    971,  0.767712533, 0.0801680535, -0.388860345
    972,   0.76773721, 0.0701625198, -0.388907075
    973,  0.767761886,  0.060157001, -0.388953835
    974,  0.767786503, 0.0501514748, -0.389000505
    975,   0.76781112, 0.0401459448, -0.389047205
    976,  0.767835736, 0.0301404186, -0.389093965
    977,  0.767860353, 0.0201348905, -0.389140666
    978,   0.76788497, 0.0101293623, -0.389187425
    979,  0.767499149, 0.000122861442, -0.388791978
    980,  0.774338484,  0.100182176, -0.396004617
    981,  0.774467468, 0.0901757181, -0.396166682
    982,  0.774488688,  0.080169566, -0.396210968
    983,  0.774509907, 0.0701634139, -0.396255314
    984,  0.774531126, 0.0601572618,  -0.39629969
    985,  0.774552345,  0.050151106, -0.396344036
    986,  0.774573505, 0.0401449576, -0.396388322
    987,  0.774594665, 0.0301387999, -0.396432698
    988,  0.774615884, 0.0201326478, -0.396477073
    989,  0.774637043, 0.0101264939, -0.396521449
    990,  0.774282038, 0.00011936282, -0.396154106
    991,  0.781073153,  0.100185119, -0.403421164
    992,  0.781188786, 0.0901779607, -0.403571606
    993,  0.781206548, 0.0801711082, -0.403613448
    994,   0.78122431, 0.0701642483,  -0.40365532
    995,  0.781242132, 0.0601573922, -0.403697222
    996,  0.781259894, 0.0501505323, -0.403739095
    997,  0.781277597, 0.0401436798, -0.403780967
    998,  0.781295359, 0.0301368199, -0.403822839
    999,  0.781313062, 0.0201299619, -0.403864741
   1000,  0.781330824, 0.0101231039, -0.403906614
   1001,  0.781006694, 0.000115250856, -0.403568506
   1002,  0.787749052,  0.100188255, -0.410889447
   1003,  0.787851274, 0.0901804045, -0.411027879
   1004,  0.787865639, 0.0801728368, -0.411067158
   1005,  0.787879944, 0.0701652691, -0.411106437
   1006,  0.787894309, 0.0601577088, -0.411145777
   1007,  0.787908554, 0.0501501448, -0.411185056
   1008,  0.787922919, 0.0401425734, -0.411224395
   1009,  0.787937164, 0.0301350076, -0.411263674
   1010,  0.787951469, 0.0201274417, -0.411303014
   1011,  0.787965775, 0.0101198731, -0.411342323
   1012,  0.787672579, 0.000111286281, -0.411034465
   1013,  0.794365644,  0.100191608,  -0.41840893
   1014,  0.794454515, 0.0901831314, -0.418534905
   1015,  0.794465423, 0.0801749304, -0.418571532
   1016,  0.794476271, 0.0701667145, -0.418608129
   1017,  0.794487178, 0.0601585098, -0.418644756
   1018,  0.794498026, 0.0501503013, -0.418681383
   1019,  0.794508874, 0.0401420929,  -0.41871801
   1020,  0.794519663, 0.0301338844, -0.418754607
   1021,  0.794530511, 0.0201256759, -0.418791234
   1022,  0.794541359, 0.0101174675, -0.418827891
   1023,  0.794279158, 0.000108217886, -0.418551326
   1024,   0.80092293,  0.100195169, -0.425979525
   1025,  0.800998509, 0.0901862085, -0.426092654
   1026,   0.80100584, 0.0801775008,  -0.42612642
   1027,  0.801013291, 0.0701687932, -0.426160246
   1028,  0.801020682, 0.0601600818, -0.426194072
   1029,  0.801028073, 0.0501513742, -0.426227868
   1030,  0.801035404, 0.0401426628, -0.426261693
   1031,  0.801042795, 0.0301339533, -0.426295519
   1032,  0.801050127, 0.0201252438, -0.426329345
   1033,  0.801057518, 0.0101165343,   -0.4263632
   1034,  0.800826192, 0.000106775457,  -0.42611891
   1035,  0.807421088,  0.100198932, -0.433601439
   1036,  0.807483315, 0.0901897028, -0.433701277
   1037,  0.807487249, 0.0801807046, -0.433732182
   1038,  0.807491183, 0.0701717064, -0.433763087
   1039,  0.807495117, 0.0601627119, -0.433793992
   1040,  0.807498991, 0.0501537099, -0.433824897
   1041,  0.807502925, 0.0401447155, -0.433855802
   1042,  0.807506859, 0.0301357172, -0.433886737
   1043,  0.807510734,  0.020126719, -0.433917671
   1044,  0.807514668, 0.0101177199, -0.433948636
   1045,  0.807314277, 0.000107684886, -0.433737725
   1046,   0.81385839,  0.100202918, -0.441272646
   1047,  0.813907444, 0.0901937187, -0.441358835
   1048,  0.813907921,  0.080184713, -0.441386789
   1049,  0.813908458, 0.0701757073, -0.441414744
   1050,  0.813908994, 0.0601667166, -0.441442728
   1051,  0.813909531, 0.0501577146, -0.441470742
   1052,  0.813910007, 0.0401487127, -0.441498727
   1053,  0.813910484, 0.0301397108, -0.441526681
   1054,  0.813911021, 0.0201307107, -0.441554666
   1055,  0.813911498, 0.0101217097,  -0.44158268
   1056,  0.813742101, 0.000111714275,  -0.44140631
   1057,  0.820235252,  0.100207232, -0.448993534
   1058,  0.820271075, 0.0901984125, -0.449065655
   1059,  0.820268154, 0.0801897645,  -0.44909054
   1060,  0.820265293, 0.0701811239, -0.449115455
   1061,  0.820262372, 0.0601724871,  -0.44914037
   1062,  0.820259452, 0.0501638465, -0.449165285
   1063,  0.820256531, 0.0401552022, -0.449190199
   1064,   0.82025367, 0.0301465616, -0.449215114
   1065,   0.82025075, 0.0201379191, -0.449240059
   1066,  0.820247829, 0.0101292785, -0.449264973
   1067,  0.820109248, 0.000119725984, -0.449124157
   1068,  0.826549947,  0.100211963, -0.456762046
   1069,  0.826572597, 0.0902039856, -0.456819654
   1070,  0.826566279, 0.0801961347, -0.456841379
   1071,  0.826559961, 0.0701882839, -0.456863105
   1072,  0.826553643,  0.060180448, -0.456884831
   1073,  0.826547325, 0.0501726046, -0.456906587
   1074,  0.826541007, 0.0401647612, -0.456928343
   1075,  0.826534688, 0.0301569179, -0.456950068
   1076,   0.82652837, 0.0201490726, -0.456971854
   1077,  0.826522052, 0.0101412293,  -0.45699358
   1078,  0.826414168, 0.000132606845, -0.456889302
   1079,  0.832804143,  0.100216791, -0.464580059
   1080,  0.832813621, 0.0902101472, -0.464622706
   1081,  0.832803905, 0.0802036002, -0.464641154
   1082,  0.832794189, 0.0701970533, -0.464659601
   1083,  0.832784414, 0.0601905137, -0.464678019
   1084,  0.832774699, 0.0501839705, -0.464696467
   1085,  0.832764924, 0.0401774272, -0.464714915
   1086,  0.832755208,  0.030170884, -0.464733392
   1087,  0.832745433, 0.0201643389,  -0.46475181
   1088,  0.832735717, 0.0101577947, -0.464770287
   1089,   0.83265847, 0.000150662905,  -0.46470356
   1090,  0.838993609,  0.100222103, -0.472442389
   1091,  0.838990092, 0.0902174041, -0.472469717
   1092,  0.838976979, 0.0802127495, -0.472484767
   1093,  0.838963866,  0.070208095, -0.472499847
   1094,  0.838950694, 0.0602034554, -0.472514898
   1095,  0.838937581, 0.0501988046, -0.472529948
   1096,  0.838924527, 0.0401941612, -0.472545058
   1097,  0.838911355, 0.0301895104, -0.472560108
   1098,  0.838898242, 0.0201848615, -0.472575217
   1099,  0.838885128, 0.0101802135, -0.472590297
   1100,  0.838838339, 0.000175236957, -0.472562224
   1101,  0.845026851,   0.10023088, -0.480229676
   1102,  0.847213984,  0.090223141, -0.478547871
   1103,  0.847220242, 0.0802209228, -0.478542298
   1104,  0.847227931, 0.0702187121, -0.478535563
   1105,  0.847233534, 0.0602165051, -0.478530556
   1106,  0.847239137, 0.0502142943, -0.478525519
   1107,   0.84724474, 0.0402120836, -0.478520513
   1108,  0.847250342, 0.0302098729, -0.478515476
   1109,  0.847255945, 0.0202076621, -0.478510439
   1110,  0.847261548, 0.0102054523, -0.478505433
   1111,  0.847267151, 0.000203242322, -0.478500396
*Element, type=S4RT
   1,    1,    2,   13,   12
   2,    2,    3,   14,   13
   3,    3,    4,   15,   14
   4,    4,    5,   16,   15
   5,    5,    6,   17,   16
   6,    6,    7,   18,   17
   7,    7,    8,   19,   18
   8,    8,    9,   20,   19
   9,    9,   10,   21,   20
  10,   10,   11,   22,   21
  11,   12,   13,   24,   23
  12,   13,   14,   25,   24
  13,   14,   15,   26,   25
  14,   15,   16,   27,   26
  15,   16,   17,   28,   27
  16,   17,   18,   29,   28
  17,   18,   19,   30,   29
  18,   19,   20,   31,   30
  19,   20,   21,   32,   31
  20,   21,   22,   33,   32
  21,   23,   24,   35,   34
  22,   24,   25,   36,   35
  23,   25,   26,   37,   36
  24,   26,   27,   38,   37
  25,   27,   28,   39,   38
  26,   28,   29,   40,   39
  27,   29,   30,   41,   40
  28,   30,   31,   42,   41
  29,   31,   32,   43,   42
  30,   32,   33,   44,   43
  31,   34,   35,   46,   45
  32,   35,   36,   47,   46
  33,   36,   37,   48,   47
  34,   37,   38,   49,   48
  35,   38,   39,   50,   49
  36,   39,   40,   51,   50
  37,   40,   41,   52,   51
  38,   41,   42,   53,   52
  39,   42,   43,   54,   53
  40,   43,   44,   55,   54
  41,   45,   46,   57,   56
  42,   46,   47,   58,   57
  43,   47,   48,   59,   58
  44,   48,   49,   60,   59
  45,   49,   50,   61,   60
  46,   50,   51,   62,   61
  47,   51,   52,   63,   62
  48,   52,   53,   64,   63
  49,   53,   54,   65,   64
  50,   54,   55,   66,   65
  51,   56,   57,   68,   67
  52,   57,   58,   69,   68
  53,   58,   59,   70,   69
  54,   59,   60,   71,   70
  55,   60,   61,   72,   71
  56,   61,   62,   73,   72
  57,   62,   63,   74,   73
  58,   63,   64,   75,   74
  59,   64,   65,   76,   75
  60,   65,   66,   77,   76
  61,   67,   68,   79,   78
  62,   68,   69,   80,   79
  63,   69,   70,   81,   80
  64,   70,   71,   82,   81
  65,   71,   72,   83,   82
  66,   72,   73,   84,   83
  67,   73,   74,   85,   84
  68,   74,   75,   86,   85
  69,   75,   76,   87,   86
  70,   76,   77,   88,   87
  71,   78,   79,   90,   89
  72,   79,   80,   91,   90
  73,   80,   81,   92,   91
  74,   81,   82,   93,   92
  75,   82,   83,   94,   93
  76,   83,   84,   95,   94
  77,   84,   85,   96,   95
  78,   85,   86,   97,   96
  79,   86,   87,   98,   97
  80,   87,   88,   99,   98
  81,   89,   90,  101,  100
  82,   90,   91,  102,  101
  83,   91,   92,  103,  102
  84,   92,   93,  104,  103
  85,   93,   94,  105,  104
  86,   94,   95,  106,  105
  87,   95,   96,  107,  106
  88,   96,   97,  108,  107
  89,   97,   98,  109,  108
  90,   98,   99,  110,  109
  91,  100,  101,  112,  111
  92,  101,  102,  113,  112
  93,  102,  103,  114,  113
  94,  103,  104,  115,  114
  95,  104,  105,  116,  115
  96,  105,  106,  117,  116
  97,  106,  107,  118,  117
  98,  107,  108,  119,  118
  99,  108,  109,  120,  119
 100,  109,  110,  121,  120
 101,  111,  112,  123,  122
 102,  112,  113,  124,  123
 103,  113,  114,  125,  124
 104,  114,  115,  126,  125
 105,  115,  116,  127,  126
 106,  116,  117,  128,  127
 107,  117,  118,  129,  128
 108,  118,  119,  130,  129
 109,  119,  120,  131,  130
 110,  120,  121,  132,  131
 111,  122,  123,  134,  133
 112,  123,  124,  135,  134
 113,  124,  125,  136,  135
 114,  125,  126,  137,  136
 115,  126,  127,  138,  137
 116,  127,  128,  139,  138
 117,  128,  129,  140,  139
 118,  129,  130,  141,  140
 119,  130,  131,  142,  141
 120,  131,  132,  143,  142
 121,  133,  134,  145,  144
 122,  134,  135,  146,  145
 123,  135,  136,  147,  146
 124,  136,  137,  148,  147
 125,  137,  138,  149,  148
 126,  138,  139,  150,  149
 127,  139,  140,  151,  150
 128,  140,  141,  152,  151
 129,  141,  142,  153,  152
 130,  142,  143,  154,  153
 131,  144,  145,  156,  155
 132,  145,  146,  157,  156
 133,  146,  147,  158,  157
 134,  147,  148,  159,  158
 135,  148,  149,  160,  159
 136,  149,  150,  161,  160
 137,  150,  151,  162,  161
 138,  151,  152,  163,  162
 139,  152,  153,  164,  163
 140,  153,  154,  165,  164
 141,  155,  156,  167,  166
 142,  156,  157,  168,  167
 143,  157,  158,  169,  168
 144,  158,  159,  170,  169
 145,  159,  160,  171,  170
 146,  160,  161,  172,  171
 147,  161,  162,  173,  172
 148,  162,  163,  174,  173
 149,  163,  164,  175,  174
 150,  164,  165,  176,  175
 151,  166,  167,  178,  177
 152,  167,  168,  179,  178
 153,  168,  169,  180,  179
 154,  169,  170,  181,  180
 155,  170,  171,  182,  181
 156,  171,  172,  183,  182
 157,  172,  173,  184,  183
 158,  173,  174,  185,  184
 159,  174,  175,  186,  185
 160,  175,  176,  187,  186
 161,  177,  178,  189,  188
 162,  178,  179,  190,  189
 163,  179,  180,  191,  190
 164,  180,  181,  192,  191
 165,  181,  182,  193,  192
 166,  182,  183,  194,  193
 167,  183,  184,  195,  194
 168,  184,  185,  196,  195
 169,  185,  186,  197,  196
 170,  186,  187,  198,  197
 171,  188,  189,  200,  199
 172,  189,  190,  201,  200
 173,  190,  191,  202,  201
 174,  191,  192,  203,  202
 175,  192,  193,  204,  203
 176,  193,  194,  205,  204
 177,  194,  195,  206,  205
 178,  195,  196,  207,  206
 179,  196,  197,  208,  207
 180,  197,  198,  209,  208
 181,  199,  200,  211,  210
 182,  200,  201,  212,  211
 183,  201,  202,  213,  212
 184,  202,  203,  214,  213
 185,  203,  204,  215,  214
 186,  204,  205,  216,  215
 187,  205,  206,  217,  216
 188,  206,  207,  218,  217
 189,  207,  208,  219,  218
 190,  208,  209,  220,  219
 191,  210,  211,  222,  221
 192,  211,  212,  223,  222
 193,  212,  213,  224,  223
 194,  213,  214,  225,  224
 195,  214,  215,  226,  225
 196,  215,  216,  227,  226
 197,  216,  217,  228,  227
 198,  217,  218,  229,  228
 199,  218,  219,  230,  229
 200,  219,  220,  231,  230
 201,  221,  222,  233,  232
 202,  222,  223,  234,  233
 203,  223,  224,  235,  234
 204,  224,  225,  236,  235
 205,  225,  226,  237,  236
 206,  226,  227,  238,  237
 207,  227,  228,  239,  238
 208,  228,  229,  240,  239
 209,  229,  230,  241,  240
 210,  230,  231,  242,  241
 211,  232,  233,  244,  243
 212,  233,  234,  245,  244
 213,  234,  235,  246,  245
 214,  235,  236,  247,  246
 215,  236,  237,  248,  247
 216,  237,  238,  249,  248
 217,  238,  239,  250,  249
 218,  239,  240,  251,  250
 219,  240,  241,  252,  251
 220,  241,  242,  253,  252
 221,  243,  244,  255,  254
 222,  244,  245,  256,  255
 223,  245,  246,  257,  256
 224,  246,  247,  258,  257
 225,  247,  248,  259,  258
 226,  248,  249,  260,  259
 227,  249,  250,  261,  260
 228,  250,  251,  262,  261
 229,  251,  252,  263,  262
 230,  252,  253,  264,  263
 231,  254,  255,  266,  265
 232,  255,  256,  267,  266
 233,  256,  257,  268,  267
 234,  257,  258,  269,  268
 235,  258,  259,  270,  269
 236,  259,  260,  271,  270
 237,  260,  261,  272,  271
 238,  261,  262,  273,  272
 239,  262,  263,  274,  273
 240,  263,  264,  275,  274
 241,  265,  266,  277,  276
 242,  266,  267,  278,  277
 243,  267,  268,  279,  278
 244,  268,  269,  280,  279
 245,  269,  270,  281,  280
 246,  270,  271,  282,  281
 247,  271,  272,  283,  282
 248,  272,  273,  284,  283
 249,  273,  274,  285,  284
 250,  274,  275,  286,  285
 251,  276,  277,  288,  287
 252,  277,  278,  289,  288
 253,  278,  279,  290,  289
 254,  279,  280,  291,  290
 255,  280,  281,  292,  291
 256,  281,  282,  293,  292
 257,  282,  283,  294,  293
 258,  283,  284,  295,  294
 259,  284,  285,  296,  295
 260,  285,  286,  297,  296
 261,  287,  288,  299,  298
 262,  288,  289,  300,  299
 263,  289,  290,  301,  300
 264,  290,  291,  302,  301
 265,  291,  292,  303,  302
 266,  292,  293,  304,  303
 267,  293,  294,  305,  304
 268,  294,  295,  306,  305
 269,  295,  296,  307,  306
 270,  296,  297,  308,  307
 271,  298,  299,  310,  309
 272,  299,  300,  311,  310
 273,  300,  301,  312,  311
 274,  301,  302,  313,  312
 275,  302,  303,  314,  313
 276,  303,  304,  315,  314
 277,  304,  305,  316,  315
 278,  305,  306,  317,  316
 279,  306,  307,  318,  317
 280,  307,  308,  319,  318
 281,  309,  310,  321,  320
 282,  310,  311,  322,  321
 283,  311,  312,  323,  322
 284,  312,  313,  324,  323
 285,  313,  314,  325,  324
 286,  314,  315,  326,  325
 287,  315,  316,  327,  326
 288,  316,  317,  328,  327
 289,  317,  318,  329,  328
 290,  318,  319,  330,  329
 291,  320,  321,  332,  331
 292,  321,  322,  333,  332
 293,  322,  323,  334,  333
 294,  323,  324,  335,  334
 295,  324,  325,  336,  335
 296,  325,  326,  337,  336
 297,  326,  327,  338,  337
 298,  327,  328,  339,  338
 299,  328,  329,  340,  339
 300,  329,  330,  341,  340
 301,  331,  332,  343,  342
 302,  332,  333,  344,  343
 303,  333,  334,  345,  344
 304,  334,  335,  346,  345
 305,  335,  336,  347,  346
 306,  336,  337,  348,  347
 307,  337,  338,  349,  348
 308,  338,  339,  350,  349
 309,  339,  340,  351,  350
 310,  340,  341,  352,  351
 311,  342,  343,  354,  353
 312,  343,  344,  355,  354
 313,  344,  345,  356,  355
 314,  345,  346,  357,  356
 315,  346,  347,  358,  357
 316,  347,  348,  359,  358
 317,  348,  349,  360,  359
 318,  349,  350,  361,  360
 319,  350,  351,  362,  361
 320,  351,  352,  363,  362
 321,  353,  354,  365,  364
 322,  354,  355,  366,  365
 323,  355,  356,  367,  366
 324,  356,  357,  368,  367
 325,  357,  358,  369,  368
 326,  358,  359,  370,  369
 327,  359,  360,  371,  370
 328,  360,  361,  372,  371
 329,  361,  362,  373,  372
 330,  362,  363,  374,  373
 331,  364,  365,  376,  375
 332,  365,  366,  377,  376
 333,  366,  367,  378,  377
 334,  367,  368,  379,  378
 335,  368,  369,  380,  379
 336,  369,  370,  381,  380
 337,  370,  371,  382,  381
 338,  371,  372,  383,  382
 339,  372,  373,  384,  383
 340,  373,  374,  385,  384
 341,  375,  376,  387,  386
 342,  376,  377,  388,  387
 343,  377,  378,  389,  388
 344,  378,  379,  390,  389
 345,  379,  380,  391,  390
 346,  380,  381,  392,  391
 347,  381,  382,  393,  392
 348,  382,  383,  394,  393
 349,  383,  384,  395,  394
 350,  384,  385,  396,  395
 351,  386,  387,  398,  397
 352,  387,  388,  399,  398
 353,  388,  389,  400,  399
 354,  389,  390,  401,  400
 355,  390,  391,  402,  401
 356,  391,  392,  403,  402
 357,  392,  393,  404,  403
 358,  393,  394,  405,  404
 359,  394,  395,  406,  405
 360,  395,  396,  407,  406
 361,  397,  398,  409,  408
 362,  398,  399,  410,  409
 363,  399,  400,  411,  410
 364,  400,  401,  412,  411
 365,  401,  402,  413,  412
 366,  402,  403,  414,  413
 367,  403,  404,  415,  414
 368,  404,  405,  416,  415
 369,  405,  406,  417,  416
 370,  406,  407,  418,  417
 371,  408,  409,  420,  419
 372,  409,  410,  421,  420
 373,  410,  411,  422,  421
 374,  411,  412,  423,  422
 375,  412,  413,  424,  423
 376,  413,  414,  425,  424
 377,  414,  415,  426,  425
 378,  415,  416,  427,  426
 379,  416,  417,  428,  427
 380,  417,  418,  429,  428
 381,  419,  420,  431,  430
 382,  420,  421,  432,  431
 383,  421,  422,  433,  432
 384,  422,  423,  434,  433
 385,  423,  424,  435,  434
 386,  424,  425,  436,  435
 387,  425,  426,  437,  436
 388,  426,  427,  438,  437
 389,  427,  428,  439,  438
 390,  428,  429,  440,  439
 391,  430,  431,  442,  441
 392,  431,  432,  443,  442
 393,  432,  433,  444,  443
 394,  433,  434,  445,  444
 395,  434,  435,  446,  445
 396,  435,  436,  447,  446
 397,  436,  437,  448,  447
 398,  437,  438,  449,  448
 399,  438,  439,  450,  449
 400,  439,  440,  451,  450
 401,  441,  442,  453,  452
 402,  442,  443,  454,  453
 403,  443,  444,  455,  454
 404,  444,  445,  456,  455
 405,  445,  446,  457,  456
 406,  446,  447,  458,  457
 407,  447,  448,  459,  458
 408,  448,  449,  460,  459
 409,  449,  450,  461,  460
 410,  450,  451,  462,  461
 411,  452,  453,  464,  463
 412,  453,  454,  465,  464
 413,  454,  455,  466,  465
 414,  455,  456,  467,  466
 415,  456,  457,  468,  467
 416,  457,  458,  469,  468
 417,  458,  459,  470,  469
 418,  459,  460,  471,  470
 419,  460,  461,  472,  471
 420,  461,  462,  473,  472
 421,  463,  464,  475,  474
 422,  464,  465,  476,  475
 423,  465,  466,  477,  476
 424,  466,  467,  478,  477
 425,  467,  468,  479,  478
 426,  468,  469,  480,  479
 427,  469,  470,  481,  480
 428,  470,  471,  482,  481
 429,  471,  472,  483,  482
 430,  472,  473,  484,  483
 431,  474,  475,  486,  485
 432,  475,  476,  487,  486
 433,  476,  477,  488,  487
 434,  477,  478,  489,  488
 435,  478,  479,  490,  489
 436,  479,  480,  491,  490
 437,  480,  481,  492,  491
 438,  481,  482,  493,  492
 439,  482,  483,  494,  493
 440,  483,  484,  495,  494
 441,  485,  486,  497,  496
 442,  486,  487,  498,  497
 443,  487,  488,  499,  498
 444,  488,  489,  500,  499
 445,  489,  490,  501,  500
 446,  490,  491,  502,  501
 447,  491,  492,  503,  502
 448,  492,  493,  504,  503
 449,  493,  494,  505,  504
 450,  494,  495,  506,  505
 451,  496,  497,  508,  507
 452,  497,  498,  509,  508
 453,  498,  499,  510,  509
 454,  499,  500,  511,  510
 455,  500,  501,  512,  511
 456,  501,  502,  513,  512
 457,  502,  503,  514,  513
 458,  503,  504,  515,  514
 459,  504,  505,  516,  515
 460,  505,  506,  517,  516
 461,  507,  508,  519,  518
 462,  508,  509,  520,  519
 463,  509,  510,  521,  520
 464,  510,  511,  522,  521
 465,  511,  512,  523,  522
 466,  512,  513,  524,  523
 467,  513,  514,  525,  524
 468,  514,  515,  526,  525
 469,  515,  516,  527,  526
 470,  516,  517,  528,  527
 471,  518,  519,  530,  529
 472,  519,  520,  531,  530
 473,  520,  521,  532,  531
 474,  521,  522,  533,  532
 475,  522,  523,  534,  533
 476,  523,  524,  535,  534
 477,  524,  525,  536,  535
 478,  525,  526,  537,  536
 479,  526,  527,  538,  537
 480,  527,  528,  539,  538
 481,  529,  530,  541,  540
 482,  530,  531,  542,  541
 483,  531,  532,  543,  542
 484,  532,  533,  544,  543
 485,  533,  534,  545,  544
 486,  534,  535,  546,  545
 487,  535,  536,  547,  546
 488,  536,  537,  548,  547
 489,  537,  538,  549,  548
 490,  538,  539,  550,  549
 491,  540,  541,  552,  551
 492,  541,  542,  553,  552
 493,  542,  543,  554,  553
 494,  543,  544,  555,  554
 495,  544,  545,  556,  555
 496,  545,  546,  557,  556
 497,  546,  547,  558,  557
 498,  547,  548,  559,  558
 499,  548,  549,  560,  559
 500,  549,  550,  561,  560
 501,  551,  552,  563,  562
 502,  552,  553,  564,  563
 503,  553,  554,  565,  564
 504,  554,  555,  566,  565
 505,  555,  556,  567,  566
 506,  556,  557,  568,  567
 507,  557,  558,  569,  568
 508,  558,  559,  570,  569
 509,  559,  560,  571,  570
 510,  560,  561,  572,  571
 511,  562,  563,  574,  573
 512,  563,  564,  575,  574
 513,  564,  565,  576,  575
 514,  565,  566,  577,  576
 515,  566,  567,  578,  577
 516,  567,  568,  579,  578
 517,  568,  569,  580,  579
 518,  569,  570,  581,  580
 519,  570,  571,  582,  581
 520,  571,  572,  583,  582
 521,  573,  574,  585,  584
 522,  574,  575,  586,  585
 523,  575,  576,  587,  586
 524,  576,  577,  588,  587
 525,  577,  578,  589,  588
 526,  578,  579,  590,  589
 527,  579,  580,  591,  590
 528,  580,  581,  592,  591
 529,  581,  582,  593,  592
 530,  582,  583,  594,  593
 531,  584,  585,  596,  595
 532,  585,  586,  597,  596
 533,  586,  587,  598,  597
 534,  587,  588,  599,  598
 535,  588,  589,  600,  599
 536,  589,  590,  601,  600
 537,  590,  591,  602,  601
 538,  591,  592,  603,  602
 539,  592,  593,  604,  603
 540,  593,  594,  605,  604
 541,  595,  596,  607,  606
 542,  596,  597,  608,  607
 543,  597,  598,  609,  608
 544,  598,  599,  610,  609
 545,  599,  600,  611,  610
 546,  600,  601,  612,  611
 547,  601,  602,  613,  612
 548,  602,  603,  614,  613
 549,  603,  604,  615,  614
 550,  604,  605,  616,  615
 551,  606,  607,  618,  617
 552,  607,  608,  619,  618
 553,  608,  609,  620,  619
 554,  609,  610,  621,  620
 555,  610,  611,  622,  621
 556,  611,  612,  623,  622
 557,  612,  613,  624,  623
 558,  613,  614,  625,  624
 559,  614,  615,  626,  625
 560,  615,  616,  627,  626
 561,  617,  618,  629,  628
 562,  618,  619,  630,  629
 563,  619,  620,  631,  630
 564,  620,  621,  632,  631
 565,  621,  622,  633,  632
 566,  622,  623,  634,  633
 567,  623,  624,  635,  634
 568,  624,  625,  636,  635
 569,  625,  626,  637,  636
 570,  626,  627,  638,  637
 571,  628,  629,  640,  639
 572,  629,  630,  641,  640
 573,  630,  631,  642,  641
 574,  631,  632,  643,  642
 575,  632,  633,  644,  643
 576,  633,  634,  645,  644
 577,  634,  635,  646,  645
 578,  635,  636,  647,  646
 579,  636,  637,  648,  647
 580,  637,  638,  649,  648
 581,  639,  640,  651,  650
 582,  640,  641,  652,  651
 583,  641,  642,  653,  652
 584,  642,  643,  654,  653
 585,  643,  644,  655,  654
 586,  644,  645,  656,  655
 587,  645,  646,  657,  656
 588,  646,  647,  658,  657
 589,  647,  648,  659,  658
 590,  648,  649,  660,  659
 591,  650,  651,  662,  661
 592,  651,  652,  663,  662
 593,  652,  653,  664,  663
 594,  653,  654,  665,  664
 595,  654,  655,  666,  665
 596,  655,  656,  667,  666
 597,  656,  657,  668,  667
 598,  657,  658,  669,  668
 599,  658,  659,  670,  669
 600,  659,  660,  671,  670
 601,  661,  662,  673,  672
 602,  662,  663,  674,  673
 603,  663,  664,  675,  674
 604,  664,  665,  676,  675
 605,  665,  666,  677,  676
 606,  666,  667,  678,  677
 607,  667,  668,  679,  678
 608,  668,  669,  680,  679
 609,  669,  670,  681,  680
 610,  670,  671,  682,  681
 611,  672,  673,  684,  683
 612,  673,  674,  685,  684
 613,  674,  675,  686,  685
 614,  675,  676,  687,  686
 615,  676,  677,  688,  687
 616,  677,  678,  689,  688
 617,  678,  679,  690,  689
 618,  679,  680,  691,  690
 619,  680,  681,  692,  691
 620,  681,  682,  693,  692
 621,  683,  684,  695,  694
 622,  684,  685,  696,  695
 623,  685,  686,  697,  696
 624,  686,  687,  698,  697
 625,  687,  688,  699,  698
 626,  688,  689,  700,  699
 627,  689,  690,  701,  700
 628,  690,  691,  702,  701
 629,  691,  692,  703,  702
 630,  692,  693,  704,  703
 631,  694,  695,  706,  705
 632,  695,  696,  707,  706
 633,  696,  697,  708,  707
 634,  697,  698,  709,  708
 635,  698,  699,  710,  709
 636,  699,  700,  711,  710
 637,  700,  701,  712,  711
 638,  701,  702,  713,  712
 639,  702,  703,  714,  713
 640,  703,  704,  715,  714
 641,  705,  706,  717,  716
 642,  706,  707,  718,  717
 643,  707,  708,  719,  718
 644,  708,  709,  720,  719
 645,  709,  710,  721,  720
 646,  710,  711,  722,  721
 647,  711,  712,  723,  722
 648,  712,  713,  724,  723
 649,  713,  714,  725,  724
 650,  714,  715,  726,  725
 651,  716,  717,  728,  727
 652,  717,  718,  729,  728
 653,  718,  719,  730,  729
 654,  719,  720,  731,  730
 655,  720,  721,  732,  731
 656,  721,  722,  733,  732
 657,  722,  723,  734,  733
 658,  723,  724,  735,  734
 659,  724,  725,  736,  735
 660,  725,  726,  737,  736
 661,  727,  728,  739,  738
 662,  728,  729,  740,  739
 663,  729,  730,  741,  740
 664,  730,  731,  742,  741
 665,  731,  732,  743,  742
 666,  732,  733,  744,  743
 667,  733,  734,  745,  744
 668,  734,  735,  746,  745
 669,  735,  736,  747,  746
 670,  736,  737,  748,  747
 671,  738,  739,  750,  749
 672,  739,  740,  751,  750
 673,  740,  741,  752,  751
 674,  741,  742,  753,  752
 675,  742,  743,  754,  753
 676,  743,  744,  755,  754
 677,  744,  745,  756,  755
 678,  745,  746,  757,  756
 679,  746,  747,  758,  757
 680,  747,  748,  759,  758
 681,  749,  750,  761,  760
 682,  750,  751,  762,  761
 683,  751,  752,  763,  762
 684,  752,  753,  764,  763
 685,  753,  754,  765,  764
 686,  754,  755,  766,  765
 687,  755,  756,  767,  766
 688,  756,  757,  768,  767
 689,  757,  758,  769,  768
 690,  758,  759,  770,  769
 691,  760,  761,  772,  771
 692,  761,  762,  773,  772
 693,  762,  763,  774,  773
 694,  763,  764,  775,  774
 695,  764,  765,  776,  775
 696,  765,  766,  777,  776
 697,  766,  767,  778,  777
 698,  767,  768,  779,  778
 699,  768,  769,  780,  779
 700,  769,  770,  781,  780
 701,  771,  772,  783,  782
 702,  772,  773,  784,  783
 703,  773,  774,  785,  784
 704,  774,  775,  786,  785
 705,  775,  776,  787,  786
 706,  776,  777,  788,  787
 707,  777,  778,  789,  788
 708,  778,  779,  790,  789
 709,  779,  780,  791,  790
 710,  780,  781,  792,  791
 711,  782,  783,  794,  793
 712,  783,  784,  795,  794
 713,  784,  785,  796,  795
 714,  785,  786,  797,  796
 715,  786,  787,  798,  797
 716,  787,  788,  799,  798
 717,  788,  789,  800,  799
 718,  789,  790,  801,  800
 719,  790,  791,  802,  801
 720,  791,  792,  803,  802
 721,  793,  794,  805,  804
 722,  794,  795,  806,  805
 723,  795,  796,  807,  806
 724,  796,  797,  808,  807
 725,  797,  798,  809,  808
 726,  798,  799,  810,  809
 727,  799,  800,  811,  810
 728,  800,  801,  812,  811
 729,  801,  802,  813,  812
 730,  802,  803,  814,  813
 731,  804,  805,  816,  815
 732,  805,  806,  817,  816
 733,  806,  807,  818,  817
 734,  807,  808,  819,  818
 735,  808,  809,  820,  819
 736,  809,  810,  821,  820
 737,  810,  811,  822,  821
 738,  811,  812,  823,  822
 739,  812,  813,  824,  823
 740,  813,  814,  825,  824
 741,  815,  816,  827,  826
 742,  816,  817,  828,  827
 743,  817,  818,  829,  828
 744,  818,  819,  830,  829
 745,  819,  820,  831,  830
 746,  820,  821,  832,  831
 747,  821,  822,  833,  832
 748,  822,  823,  834,  833
 749,  823,  824,  835,  834
 750,  824,  825,  836,  835
 751,  826,  827,  838,  837
 752,  827,  828,  839,  838
 753,  828,  829,  840,  839
 754,  829,  830,  841,  840
 755,  830,  831,  842,  841
 756,  831,  832,  843,  842
 757,  832,  833,  844,  843
 758,  833,  834,  845,  844
 759,  834,  835,  846,  845
 760,  835,  836,  847,  846
 761,  837,  838,  849,  848
 762,  838,  839,  850,  849
 763,  839,  840,  851,  850
 764,  840,  841,  852,  851
 765,  841,  842,  853,  852
 766,  842,  843,  854,  853
 767,  843,  844,  855,  854
 768,  844,  845,  856,  855
 769,  845,  846,  857,  856
 770,  846,  847,  858,  857
 771,  848,  849,  860,  859
 772,  849,  850,  861,  860
 773,  850,  851,  862,  861
 774,  851,  852,  863,  862
 775,  852,  853,  864,  863
 776,  853,  854,  865,  864
 777,  854,  855,  866,  865
 778,  855,  856,  867,  866
 779,  856,  857,  868,  867
 780,  857,  858,  869,  868
 781,  859,  860,  871,  870
 782,  860,  861,  872,  871
 783,  861,  862,  873,  872
 784,  862,  863,  874,  873
 785,  863,  864,  875,  874
 786,  864,  865,  876,  875
 787,  865,  866,  877,  876
 788,  866,  867,  878,  877
 789,  867,  868,  879,  878
 790,  868,  869,  880,  879
 791,  870,  871,  882,  881
 792,  871,  872,  883,  882
 793,  872,  873,  884,  883
 794,  873,  874,  885,  884
 795,  874,  875,  886,  885
 796,  875,  876,  887,  886
 797,  876,  877,  888,  887
 798,  877,  878,  889,  888
 799,  878,  879,  890,  889
 800,  879,  880,  891,  890
 801,  881,  882,  893,  892
 802,  882,  883,  894,  893
 803,  883,  884,  895,  894
 804,  884,  885,  896,  895
 805,  885,  886,  897,  896
 806,  886,  887,  898,  897
 807,  887,  888,  899,  898
 808,  888,  889,  900,  899
 809,  889,  890,  901,  900
 810,  890,  891,  902,  901
 811,  892,  893,  904,  903
 812,  893,  894,  905,  904
 813,  894,  895,  906,  905
 814,  895,  896,  907,  906
 815,  896,  897,  908,  907
 816,  897,  898,  909,  908
 817,  898,  899,  910,  909
 818,  899,  900,  911,  910
 819,  900,  901,  912,  911
 820,  901,  902,  913,  912
 821,  903,  904,  915,  914
 822,  904,  905,  916,  915
 823,  905,  906,  917,  916
 824,  906,  907,  918,  917
 825,  907,  908,  919,  918
 826,  908,  909,  920,  919
 827,  909,  910,  921,  920
 828,  910,  911,  922,  921
 829,  911,  912,  923,  922
 830,  912,  913,  924,  923
 831,  914,  915,  926,  925
 832,  915,  916,  927,  926
 833,  916,  917,  928,  927
 834,  917,  918,  929,  928
 835,  918,  919,  930,  929
 836,  919,  920,  931,  930
 837,  920,  921,  932,  931
 838,  921,  922,  933,  932
 839,  922,  923,  934,  933
 840,  923,  924,  935,  934
 841,  925,  926,  937,  936
 842,  926,  927,  938,  937
 843,  927,  928,  939,  938
 844,  928,  929,  940,  939
 845,  929,  930,  941,  940
 846,  930,  931,  942,  941
 847,  931,  932,  943,  942
 848,  932,  933,  944,  943
 849,  933,  934,  945,  944
 850,  934,  935,  946,  945
 851,  936,  937,  948,  947
 852,  937,  938,  949,  948
 853,  938,  939,  950,  949
 854,  939,  940,  951,  950
 855,  940,  941,  952,  951
 856,  941,  942,  953,  952
 857,  942,  943,  954,  953
 858,  943,  944,  955,  954
 859,  944,  945,  956,  955
 860,  945,  946,  957,  956
 861,  947,  948,  959,  958
 862,  948,  949,  960,  959
 863,  949,  950,  961,  960
 864,  950,  951,  962,  961
 865,  951,  952,  963,  962
 866,  952,  953,  964,  963
 867,  953,  954,  965,  964
 868,  954,  955,  966,  965
 869,  955,  956,  967,  966
 870,  956,  957,  968,  967
 871,  958,  959,  970,  969
 872,  959,  960,  971,  970
 873,  960,  961,  972,  971
 874,  961,  962,  973,  972
 875,  962,  963,  974,  973
 876,  963,  964,  975,  974
 877,  964,  965,  976,  975
 878,  965,  966,  977,  976
 879,  966,  967,  978,  977
 880,  967,  968,  979,  978
 881,  969,  970,  981,  980
 882,  970,  971,  982,  981
 883,  971,  972,  983,  982
 884,  972,  973,  984,  983
 885,  973,  974,  985,  984
 886,  974,  975,  986,  985
 887,  975,  976,  987,  986
 888,  976,  977,  988,  987
 889,  977,  978,  989,  988
 890,  978,  979,  990,  989
 891,  980,  981,  992,  991
 892,  981,  982,  993,  992
 893,  982,  983,  994,  993
 894,  983,  984,  995,  994
 895,  984,  985,  996,  995
 896,  985,  986,  997,  996
 897,  986,  987,  998,  997
 898,  987,  988,  999,  998
 899,  988,  989, 1000,  999
 900,  989,  990, 1001, 1000
 901,  991,  992, 1003, 1002
 902,  992,  993, 1004, 1003
 903,  993,  994, 1005, 1004
 904,  994,  995, 1006, 1005
 905,  995,  996, 1007, 1006
 906,  996,  997, 1008, 1007
 907,  997,  998, 1009, 1008
 908,  998,  999, 1010, 1009
 909,  999, 1000, 1011, 1010
 910, 1000, 1001, 1012, 1011
 911, 1002, 1003, 1014, 1013
 912, 1003, 1004, 1015, 1014
 913, 1004, 1005, 1016, 1015
 914, 1005, 1006, 1017, 1016
 915, 1006, 1007, 1018, 1017
 916, 1007, 1008, 1019, 1018
 917, 1008, 1009, 1020, 1019
 918, 1009, 1010, 1021, 1020
 919, 1010, 1011, 1022, 1021
 920, 1011, 1012, 1023, 1022
 921, 1013, 1014, 1025, 1024
 922, 1014, 1015, 1026, 1025
 923, 1015, 1016, 1027, 1026
 924, 1016, 1017, 1028, 1027
 925, 1017, 1018, 1029, 1028
 926, 1018, 1019, 1030, 1029
 927, 1019, 1020, 1031, 1030
 928, 1020, 1021, 1032, 1031
 929, 1021, 1022, 1033, 1032
 930, 1022, 1023, 1034, 1033
 931, 1024, 1025, 1036, 1035
 932, 1025, 1026, 1037, 1036
 933, 1026, 1027, 1038, 1037
 934, 1027, 1028, 1039, 1038
 935, 1028, 1029, 1040, 1039
 936, 1029, 1030, 1041, 1040
 937, 1030, 1031, 1042, 1041
 938, 1031, 1032, 1043, 1042
 939, 1032, 1033, 1044, 1043
 940, 1033, 1034, 1045, 1044
 941, 1035, 1036, 1047, 1046
 942, 1036, 1037, 1048, 1047
 943, 1037, 1038, 1049, 1048
 944, 1038, 1039, 1050, 1049
 945, 1039, 1040, 1051, 1050
 946, 1040, 1041, 1052, 1051
 947, 1041, 1042, 1053, 1052
 948, 1042, 1043, 1054, 1053
 949, 1043, 1044, 1055, 1054
 950, 1044, 1045, 1056, 1055
 951, 1046, 1047, 1058, 1057
 952, 1047, 1048, 1059, 1058
 953, 1048, 1049, 1060, 1059
 954, 1049, 1050, 1061, 1060
 955, 1050, 1051, 1062, 1061
 956, 1051, 1052, 1063, 1062
 957, 1052, 1053, 1064, 1063
 958, 1053, 1054, 1065, 1064
 959, 1054, 1055, 1066, 1065
 960, 1055, 1056, 1067, 1066
 961, 1057, 1058, 1069, 1068
 962, 1058, 1059, 1070, 1069
 963, 1059, 1060, 1071, 1070
 964, 1060, 1061, 1072, 1071
 965, 1061, 1062, 1073, 1072
 966, 1062, 1063, 1074, 1073
 967, 1063, 1064, 1075, 1074
 968, 1064, 1065, 1076, 1075
 969, 1065, 1066, 1077, 1076
 970, 1066, 1067, 1078, 1077
 971, 1068, 1069, 1080, 1079
 972, 1069, 1070, 1081, 1080
 973, 1070, 1071, 1082, 1081
 974, 1071, 1072, 1083, 1082
 975, 1072, 1073, 1084, 1083
 976, 1073, 1074, 1085, 1084
 977, 1074, 1075, 1086, 1085
 978, 1075, 1076, 1087, 1086
 979, 1076, 1077, 1088, 1087
 980, 1077, 1078, 1089, 1088
 981, 1079, 1080, 1091, 1090
 982, 1080, 1081, 1092, 1091
 983, 1081, 1082, 1093, 1092
 984, 1082, 1083, 1094, 1093
 985, 1083, 1084, 1095, 1094
 986, 1084, 1085, 1096, 1095
 987, 1085, 1086, 1097, 1096
 988, 1086, 1087, 1098, 1097
 989, 1087, 1088, 1099, 1098
 990, 1088, 1089, 1100, 1099
 991, 1090, 1091, 1102, 1101
 992, 1091, 1092, 1103, 1102
 993, 1092, 1093, 1104, 1103
 994, 1093, 1094, 1105, 1104
 995, 1094, 1095, 1106, 1105
 996, 1095, 1096, 1107, 1106
 997, 1096, 1097, 1108, 1107
 998, 1097, 1098, 1109, 1108
 999, 1098, 1099, 1110, 1109
1000, 1099, 1100, 1111, 1110
*Nset, nset=Set-1, generate
    1,  1111,     1
*Elset, elset=Set-1, generate
    1,  1000,     1
** Section: CompositeSection-1
*Shell Section, elset=Set-1, composite
0.0025, 3, Aluminum, 0., a
0.0025, 3, FakeSMA, 0., b
*End Part
**  
**
** ASSEMBLY
**
*Assembly, name=Assembly
**  
*Instance, name="SMAStrip (Nitinol)", part="SMAStrip (Nitinol)"
*End Instance
**  
*Nset, nset=Fixed-Set, instance="SMAStrip (Nitinol)", generate
  1,  11,   1
*Elset, elset=Fixed-Set, instance="SMAStrip (Nitinol)", generate
  1,  10,   1
*Nset, nset=Set-Temp, instance="SMAStrip (Nitinol)", generate
    1,  1111,     1
*Elset, elset=Set-Temp, instance="SMAStrip (Nitinol)", generate
    1,  1000,     1
*Elset, elset=_All-Surfaces_SPOS, internal, instance="SMAStrip (Nitinol)", generate
    1,  1000,     1
*Surface, type=ELEMENT, name=All-Surfaces
_All-Surfaces_SPOS, SPOS
*End Assembly
*Amplitude, name=InstantVacuum
             0.,              1.,              4.,              1.
** 
** MATERIALS
** 
*Material, name=Aluminum
*Conductivity
100.,
*Density
2300.,
*Elastic
 7e+10, 0.3
*Expansion
0.,
*Specific Heat
900.,
*Material, name=FakeSMA
*Conductivity
50.,
*Density
6450.,
*Elastic
 9e+10, 0.3
*Expansion
 0.0025,
*Specific Heat
800.,
** 
** PHYSICAL CONSTANTS
** 
*Physical Constants, absolute zero=0., stefan boltzmann=5.67e-08
** 
** PREDEFINED FIELDS
** 
** Name: Temp0   Type: Temperature Using Field: TempField_Initial
*Initial Conditions, type=TEMPERATURE
"SMAStrip (Nitinol)".1, 0., 0., 0., 0., 0.
"SMAStrip (Nitinol)".2, 5.73416, 5.73416, 5.73416, 5.73416, 5.73416
"SMAStrip (Nitinol)".3, 5.73446, 5.73446, 5.73446, 5.73446, 5.73446
"SMAStrip (Nitinol)".4, 5.73466, 5.73466, 5.73466, 5.73466, 5.73466
"SMAStrip (Nitinol)".5, 5.73479, 5.73479, 5.73479, 5.73479, 5.73479
"SMAStrip (Nitinol)".6, 5.73485, 5.73485, 5.73485, 5.73485, 5.73485
"SMAStrip (Nitinol)".7, 5.73483, 5.73483, 5.73483, 5.73483, 5.73483
"SMAStrip (Nitinol)".8, 5.73472, 5.73472, 5.73472, 5.73472, 5.73472
"SMAStrip (Nitinol)".9, 5.73449, 5.73449, 5.73449, 5.73449, 5.73449
"SMAStrip (Nitinol)".10, 5.73409, 5.73409, 5.73409, 5.73409, 5.73409
"SMAStrip (Nitinol)".11, 5.7331, 5.7331, 5.7331, 5.7331, 5.7331
"SMAStrip (Nitinol)".12, 5.73087, 5.73087, 5.73087, 5.73087, 5.73087
"SMAStrip (Nitinol)".13, 5.73072, 5.73072, 5.73072, 5.73072, 5.73072
"SMAStrip (Nitinol)".14, 5.73077, 5.73077, 5.73077, 5.73077, 5.73077
"SMAStrip (Nitinol)".15, 5.73086, 5.73086, 5.73086, 5.73086, 5.73086
"SMAStrip (Nitinol)".16, 5.73089, 5.73089, 5.73089, 5.73089, 5.73089
"SMAStrip (Nitinol)".17, 5.73088, 5.73088, 5.73088, 5.73088, 5.73088
"SMAStrip (Nitinol)".18, 5.7308, 5.7308, 5.7308, 5.7308, 5.7308
"SMAStrip (Nitinol)".19, 5.73066, 5.73066, 5.73066, 5.73066, 5.73066
"SMAStrip (Nitinol)".20, 5.73044, 5.73044, 5.73044, 5.73044, 5.73044
"SMAStrip (Nitinol)".21, 5.73031, 5.73031, 5.73031, 5.73031, 5.73031
"SMAStrip (Nitinol)".22, 5.73063, 5.73063, 5.73063, 5.73063, 5.73063
"SMAStrip (Nitinol)".23, 5.72404, 5.72404, 5.72404, 5.72404, 5.72404
"SMAStrip (Nitinol)".24, 5.72379, 5.72379, 5.72379, 5.72379, 5.72379
"SMAStrip (Nitinol)".25, 5.72377, 5.72377, 5.72377, 5.72377, 5.72377
"SMAStrip (Nitinol)".26, 5.72377, 5.72377, 5.72377, 5.72377, 5.72377
"SMAStrip (Nitinol)".27, 5.72374, 5.72374, 5.72374, 5.72374, 5.72374
"SMAStrip (Nitinol)".28, 5.72368, 5.72368, 5.72368, 5.72368, 5.72368
"SMAStrip (Nitinol)".29, 5.7236, 5.7236, 5.7236, 5.7236, 5.7236
"SMAStrip (Nitinol)".30, 5.72348, 5.72348, 5.72348, 5.72348, 5.72348
"SMAStrip (Nitinol)".31, 5.72332, 5.72332, 5.72332, 5.72332, 5.72332
"SMAStrip (Nitinol)".32, 5.72315, 5.72315, 5.72315, 5.72315, 5.72315
"SMAStrip (Nitinol)".33, 5.72351, 5.72351, 5.72351, 5.72351, 5.72351
"SMAStrip (Nitinol)".34, 5.71411, 5.71411, 5.71411, 5.71411, 5.71411
"SMAStrip (Nitinol)".35, 5.71374, 5.71374, 5.71374, 5.71374, 5.71374
"SMAStrip (Nitinol)".36, 5.71366, 5.71366, 5.71366, 5.71366, 5.71366
"SMAStrip (Nitinol)".37, 5.71358, 5.71358, 5.71358, 5.71358, 5.71358
"SMAStrip (Nitinol)".38, 5.7135, 5.7135, 5.7135, 5.7135, 5.7135
"SMAStrip (Nitinol)".39, 5.7134, 5.7134, 5.7134, 5.7134, 5.7134
"SMAStrip (Nitinol)".40, 5.71329, 5.71329, 5.71329, 5.71329, 5.71329
"SMAStrip (Nitinol)".41, 5.71316, 5.71316, 5.71316, 5.71316, 5.71316
"SMAStrip (Nitinol)".42, 5.71302, 5.71302, 5.71302, 5.71302, 5.71302
"SMAStrip (Nitinol)".43, 5.71286, 5.71286, 5.71286, 5.71286, 5.71286
"SMAStrip (Nitinol)".44, 5.71339, 5.71339, 5.71339, 5.71339, 5.71339
"SMAStrip (Nitinol)".45, 5.70215, 5.70215, 5.70215, 5.70215, 5.70215
"SMAStrip (Nitinol)".46, 5.7017, 5.7017, 5.7017, 5.7017, 5.7017
"SMAStrip (Nitinol)".47, 5.70158, 5.70158, 5.70158, 5.70158, 5.70158
"SMAStrip (Nitinol)".48, 5.70146, 5.70146, 5.70146, 5.70146, 5.70146
"SMAStrip (Nitinol)".49, 5.70134, 5.70134, 5.70134, 5.70134, 5.70134
"SMAStrip (Nitinol)".50, 5.70122, 5.70122, 5.70122, 5.70122, 5.70122
"SMAStrip (Nitinol)".51, 5.70108, 5.70108, 5.70108, 5.70108, 5.70108
"SMAStrip (Nitinol)".52, 5.70095, 5.70095, 5.70095, 5.70095, 5.70095
"SMAStrip (Nitinol)".53, 5.7008, 5.7008, 5.7008, 5.7008, 5.7008
"SMAStrip (Nitinol)".54, 5.70064, 5.70064, 5.70064, 5.70064, 5.70064
"SMAStrip (Nitinol)".55, 5.70131, 5.70131, 5.70131, 5.70131, 5.70131
"SMAStrip (Nitinol)".56, 5.6888, 5.6888, 5.6888, 5.6888, 5.6888
"SMAStrip (Nitinol)".57, 5.68828, 5.68828, 5.68828, 5.68828, 5.68828
"SMAStrip (Nitinol)".58, 5.68813, 5.68813, 5.68813, 5.68813, 5.68813
"SMAStrip (Nitinol)".59, 5.68799, 5.68799, 5.68799, 5.68799, 5.68799
"SMAStrip (Nitinol)".60, 5.68785, 5.68785, 5.68785, 5.68785, 5.68785
"SMAStrip (Nitinol)".61, 5.6877, 5.6877, 5.6877, 5.6877, 5.6877
"SMAStrip (Nitinol)".62, 5.68756, 5.68756, 5.68756, 5.68756, 5.68756
"SMAStrip (Nitinol)".63, 5.6874, 5.6874, 5.6874, 5.6874, 5.6874
"SMAStrip (Nitinol)".64, 5.68725, 5.68725, 5.68725, 5.68725, 5.68725
"SMAStrip (Nitinol)".65, 5.68708, 5.68708, 5.68708, 5.68708, 5.68708
"SMAStrip (Nitinol)".66, 5.68789, 5.68789, 5.68789, 5.68789, 5.68789
"SMAStrip (Nitinol)".67, 5.67451, 5.67451, 5.67451, 5.67451, 5.67451
"SMAStrip (Nitinol)".68, 5.67393, 5.67393, 5.67393, 5.67393, 5.67393
"SMAStrip (Nitinol)".69, 5.67377, 5.67377, 5.67377, 5.67377, 5.67377
"SMAStrip (Nitinol)".70, 5.67361, 5.67361, 5.67361, 5.67361, 5.67361
"SMAStrip (Nitinol)".71, 5.67345, 5.67345, 5.67345, 5.67345, 5.67345
"SMAStrip (Nitinol)".72, 5.6733, 5.6733, 5.6733, 5.6733, 5.6733
"SMAStrip (Nitinol)".73, 5.67313, 5.67313, 5.67313, 5.67313, 5.67313
"SMAStrip (Nitinol)".74, 5.67297, 5.67297, 5.67297, 5.67297, 5.67297
"SMAStrip (Nitinol)".75, 5.6728, 5.6728, 5.6728, 5.6728, 5.6728
"SMAStrip (Nitinol)".76, 5.67263, 5.67263, 5.67263, 5.67263, 5.67263
"SMAStrip (Nitinol)".77, 5.67355, 5.67355, 5.67355, 5.67355, 5.67355
"SMAStrip (Nitinol)".78, 5.6596, 5.6596, 5.6596, 5.6596, 5.6596
"SMAStrip (Nitinol)".79, 5.65898, 5.65898, 5.65898, 5.65898, 5.65898
"SMAStrip (Nitinol)".80, 5.6588, 5.6588, 5.6588, 5.6588, 5.6588
"SMAStrip (Nitinol)".81, 5.65863, 5.65863, 5.65863, 5.65863, 5.65863
"SMAStrip (Nitinol)".82, 5.65846, 5.65846, 5.65846, 5.65846, 5.65846
"SMAStrip (Nitinol)".83, 5.65829, 5.65829, 5.65829, 5.65829, 5.65829
"SMAStrip (Nitinol)".84, 5.65812, 5.65812, 5.65812, 5.65812, 5.65812
"SMAStrip (Nitinol)".85, 5.65795, 5.65795, 5.65795, 5.65795, 5.65795
"SMAStrip (Nitinol)".86, 5.65777, 5.65777, 5.65777, 5.65777, 5.65777
"SMAStrip (Nitinol)".87, 5.6576, 5.6576, 5.6576, 5.6576, 5.6576
"SMAStrip (Nitinol)".88, 5.65862, 5.65862, 5.65862, 5.65862, 5.65862
"SMAStrip (Nitinol)".89, 5.64428, 5.64428, 5.64428, 5.64428, 5.64428
"SMAStrip (Nitinol)".90, 5.64362, 5.64362, 5.64362, 5.64362, 5.64362
"SMAStrip (Nitinol)".91, 5.64344, 5.64344, 5.64344, 5.64344, 5.64344
"SMAStrip (Nitinol)".92, 5.64326, 5.64326, 5.64326, 5.64326, 5.64326
"SMAStrip (Nitinol)".93, 5.64308, 5.64308, 5.64308, 5.64308, 5.64308
"SMAStrip (Nitinol)".94, 5.6429, 5.6429, 5.6429, 5.6429, 5.6429
"SMAStrip (Nitinol)".95, 5.64272, 5.64272, 5.64272, 5.64272, 5.64272
"SMAStrip (Nitinol)".96, 5.64254, 5.64254, 5.64254, 5.64254, 5.64254
"SMAStrip (Nitinol)".97, 5.64236, 5.64236, 5.64236, 5.64236, 5.64236
"SMAStrip (Nitinol)".98, 5.64218, 5.64218, 5.64218, 5.64218, 5.64218
"SMAStrip (Nitinol)".99, 5.64329, 5.64329, 5.64329, 5.64329, 5.64329
"SMAStrip (Nitinol)".100, 5.6287, 5.6287, 5.6287, 5.6287, 5.6287
"SMAStrip (Nitinol)".101, 5.62801, 5.62801, 5.62801, 5.62801, 5.62801
"SMAStrip (Nitinol)".102, 5.62782, 5.62782, 5.62782, 5.62782, 5.62782
"SMAStrip (Nitinol)".103, 5.62763, 5.62763, 5.62763, 5.62763, 5.62763
"SMAStrip (Nitinol)".104, 5.62745, 5.62745, 5.62745, 5.62745, 5.62745
"SMAStrip (Nitinol)".105, 5.62726, 5.62726, 5.62726, 5.62726, 5.62726
"SMAStrip (Nitinol)".106, 5.62707, 5.62707, 5.62707, 5.62707, 5.62707
"SMAStrip (Nitinol)".107, 5.62689, 5.62689, 5.62689, 5.62689, 5.62689
"SMAStrip (Nitinol)".108, 5.6267, 5.6267, 5.6267, 5.6267, 5.6267
"SMAStrip (Nitinol)".109, 5.62652, 5.62652, 5.62652, 5.62652, 5.62652
"SMAStrip (Nitinol)".110, 5.62771, 5.62771, 5.62771, 5.62771, 5.62771
"SMAStrip (Nitinol)".111, 5.61295, 5.61295, 5.61295, 5.61295, 5.61295
"SMAStrip (Nitinol)".112, 5.61223, 5.61223, 5.61223, 5.61223, 5.61223
"SMAStrip (Nitinol)".113, 5.61203, 5.61203, 5.61203, 5.61203, 5.61203
"SMAStrip (Nitinol)".114, 5.61184, 5.61184, 5.61184, 5.61184, 5.61184
"SMAStrip (Nitinol)".115, 5.61165, 5.61165, 5.61165, 5.61165, 5.61165
"SMAStrip (Nitinol)".116, 5.61146, 5.61146, 5.61146, 5.61146, 5.61146
"SMAStrip (Nitinol)".117, 5.61127, 5.61127, 5.61127, 5.61127, 5.61127
"SMAStrip (Nitinol)".118, 5.61107, 5.61107, 5.61107, 5.61107, 5.61107
"SMAStrip (Nitinol)".119, 5.61088, 5.61088, 5.61088, 5.61088, 5.61088
"SMAStrip (Nitinol)".120, 5.61069, 5.61069, 5.61069, 5.61069, 5.61069
"SMAStrip (Nitinol)".121, 5.61197, 5.61197, 5.61197, 5.61197, 5.61197
"SMAStrip (Nitinol)".122, 5.59708, 5.59708, 5.59708, 5.59708, 5.59708
"SMAStrip (Nitinol)".123, 5.59633, 5.59633, 5.59633, 5.59633, 5.59633
"SMAStrip (Nitinol)".124, 5.59613, 5.59613, 5.59613, 5.59613, 5.59613
"SMAStrip (Nitinol)".125, 5.59593, 5.59593, 5.59593, 5.59593, 5.59593
"SMAStrip (Nitinol)".126, 5.59574, 5.59574, 5.59574, 5.59574, 5.59574
"SMAStrip (Nitinol)".127, 5.59554, 5.59554, 5.59554, 5.59554, 5.59554
"SMAStrip (Nitinol)".128, 5.59534, 5.59534, 5.59534, 5.59534, 5.59534
"SMAStrip (Nitinol)".129, 5.59515, 5.59515, 5.59515, 5.59515, 5.59515
"SMAStrip (Nitinol)".130, 5.59495, 5.59495, 5.59495, 5.59495, 5.59495
"SMAStrip (Nitinol)".131, 5.59476, 5.59476, 5.59476, 5.59476, 5.59476
"SMAStrip (Nitinol)".132, 5.59611, 5.59611, 5.59611, 5.59611, 5.59611
"SMAStrip (Nitinol)".133, 5.58112, 5.58112, 5.58112, 5.58112, 5.58112
"SMAStrip (Nitinol)".134, 5.58035, 5.58035, 5.58035, 5.58035, 5.58035
"SMAStrip (Nitinol)".135, 5.58015, 5.58015, 5.58015, 5.58015, 5.58015
"SMAStrip (Nitinol)".136, 5.57995, 5.57995, 5.57995, 5.57995, 5.57995
"SMAStrip (Nitinol)".137, 5.57975, 5.57975, 5.57975, 5.57975, 5.57975
"SMAStrip (Nitinol)".138, 5.57955, 5.57955, 5.57955, 5.57955, 5.57955
"SMAStrip (Nitinol)".139, 5.57934, 5.57934, 5.57934, 5.57934, 5.57934
"SMAStrip (Nitinol)".140, 5.57914, 5.57914, 5.57914, 5.57914, 5.57914
"SMAStrip (Nitinol)".141, 5.57894, 5.57894, 5.57894, 5.57894, 5.57894
"SMAStrip (Nitinol)".142, 5.57874, 5.57874, 5.57874, 5.57874, 5.57874
"SMAStrip (Nitinol)".143, 5.58016, 5.58016, 5.58016, 5.58016, 5.58016
"SMAStrip (Nitinol)".144, 5.5651, 5.5651, 5.5651, 5.5651, 5.5651
"SMAStrip (Nitinol)".145, 5.56431, 5.56431, 5.56431, 5.56431, 5.56431
"SMAStrip (Nitinol)".146, 5.5641, 5.5641, 5.5641, 5.5641, 5.5641
"SMAStrip (Nitinol)".147, 5.5639, 5.5639, 5.5639, 5.5639, 5.5639
"SMAStrip (Nitinol)".148, 5.56369, 5.56369, 5.56369, 5.56369, 5.56369
"SMAStrip (Nitinol)".149, 5.56349, 5.56349, 5.56349, 5.56349, 5.56349
"SMAStrip (Nitinol)".150, 5.56328, 5.56328, 5.56328, 5.56328, 5.56328
"SMAStrip (Nitinol)".151, 5.56308, 5.56308, 5.56308, 5.56308, 5.56308
"SMAStrip (Nitinol)".152, 5.56287, 5.56287, 5.56287, 5.56287, 5.56287
"SMAStrip (Nitinol)".153, 5.56267, 5.56267, 5.56267, 5.56267, 5.56267
"SMAStrip (Nitinol)".154, 5.56414, 5.56414, 5.56414, 5.56414, 5.56414
"SMAStrip (Nitinol)".155, 5.54903, 5.54903, 5.54903, 5.54903, 5.54903
"SMAStrip (Nitinol)".156, 5.54822, 5.54822, 5.54822, 5.54822, 5.54822
"SMAStrip (Nitinol)".157, 5.54801, 5.54801, 5.54801, 5.54801, 5.54801
"SMAStrip (Nitinol)".158, 5.5478, 5.5478, 5.5478, 5.5478, 5.5478
"SMAStrip (Nitinol)".159, 5.54759, 5.54759, 5.54759, 5.54759, 5.54759
"SMAStrip (Nitinol)".160, 5.54738, 5.54738, 5.54738, 5.54738, 5.54738
"SMAStrip (Nitinol)".161, 5.54717, 5.54717, 5.54717, 5.54717, 5.54717
"SMAStrip (Nitinol)".162, 5.54697, 5.54697, 5.54697, 5.54697, 5.54697
"SMAStrip (Nitinol)".163, 5.54675, 5.54675, 5.54675, 5.54675, 5.54675
"SMAStrip (Nitinol)".164, 5.54654, 5.54654, 5.54654, 5.54654, 5.54654
"SMAStrip (Nitinol)".165, 5.54807, 5.54807, 5.54807, 5.54807, 5.54807
"SMAStrip (Nitinol)".166, 5.53291, 5.53291, 5.53291, 5.53291, 5.53291
"SMAStrip (Nitinol)".167, 5.53209, 5.53209, 5.53209, 5.53209, 5.53209
"SMAStrip (Nitinol)".168, 5.53187, 5.53187, 5.53187, 5.53187, 5.53187
"SMAStrip (Nitinol)".169, 5.53166, 5.53166, 5.53166, 5.53166, 5.53166
"SMAStrip (Nitinol)".170, 5.53145, 5.53145, 5.53145, 5.53145, 5.53145
"SMAStrip (Nitinol)".171, 5.53124, 5.53124, 5.53124, 5.53124, 5.53124
"SMAStrip (Nitinol)".172, 5.53102, 5.53102, 5.53102, 5.53102, 5.53102
"SMAStrip (Nitinol)".173, 5.53081, 5.53081, 5.53081, 5.53081, 5.53081
"SMAStrip (Nitinol)".174, 5.53059, 5.53059, 5.53059, 5.53059, 5.53059
"SMAStrip (Nitinol)".175, 5.53038, 5.53038, 5.53038, 5.53038, 5.53038
"SMAStrip (Nitinol)".176, 5.53196, 5.53196, 5.53196, 5.53196, 5.53196
"SMAStrip (Nitinol)".177, 5.51676, 5.51676, 5.51676, 5.51676, 5.51676
"SMAStrip (Nitinol)".178, 5.51591, 5.51591, 5.51591, 5.51591, 5.51591
"SMAStrip (Nitinol)".179, 5.51569, 5.51569, 5.51569, 5.51569, 5.51569
"SMAStrip (Nitinol)".180, 5.51548, 5.51548, 5.51548, 5.51548, 5.51548
"SMAStrip (Nitinol)".181, 5.51526, 5.51526, 5.51526, 5.51526, 5.51526
"SMAStrip (Nitinol)".182, 5.51505, 5.51505, 5.51505, 5.51505, 5.51505
"SMAStrip (Nitinol)".183, 5.51483, 5.51483, 5.51483, 5.51483, 5.51483
"SMAStrip (Nitinol)".184, 5.51461, 5.51461, 5.51461, 5.51461, 5.51461
"SMAStrip (Nitinol)".185, 5.51439, 5.51439, 5.51439, 5.51439, 5.51439
"SMAStrip (Nitinol)".186, 5.51417, 5.51417, 5.51417, 5.51417, 5.51417
"SMAStrip (Nitinol)".187, 5.51581, 5.51581, 5.51581, 5.51581, 5.51581
"SMAStrip (Nitinol)".188, 5.50056, 5.50056, 5.50056, 5.50056, 5.50056
"SMAStrip (Nitinol)".189, 5.4997, 5.4997, 5.4997, 5.4997, 5.4997
"SMAStrip (Nitinol)".190, 5.49948, 5.49948, 5.49948, 5.49948, 5.49948
"SMAStrip (Nitinol)".191, 5.49926, 5.49926, 5.49926, 5.49926, 5.49926
"SMAStrip (Nitinol)".192, 5.49904, 5.49904, 5.49904, 5.49904, 5.49904
"SMAStrip (Nitinol)".193, 5.49882, 5.49882, 5.49882, 5.49882, 5.49882
"SMAStrip (Nitinol)".194, 5.4986, 5.4986, 5.4986, 5.4986, 5.4986
"SMAStrip (Nitinol)".195, 5.49838, 5.49838, 5.49838, 5.49838, 5.49838
"SMAStrip (Nitinol)".196, 5.49815, 5.49815, 5.49815, 5.49815, 5.49815
"SMAStrip (Nitinol)".197, 5.49793, 5.49793, 5.49793, 5.49793, 5.49793
"SMAStrip (Nitinol)".198, 5.49962, 5.49962, 5.49962, 5.49962, 5.49962
"SMAStrip (Nitinol)".199, 5.48433, 5.48433, 5.48433, 5.48433, 5.48433
"SMAStrip (Nitinol)".200, 5.48345, 5.48345, 5.48345, 5.48345, 5.48345
"SMAStrip (Nitinol)".201, 5.48323, 5.48323, 5.48323, 5.48323, 5.48323
"SMAStrip (Nitinol)".202, 5.483, 5.483, 5.483, 5.483, 5.483
"SMAStrip (Nitinol)".203, 5.48278, 5.48278, 5.48278, 5.48278, 5.48278
"SMAStrip (Nitinol)".204, 5.48256, 5.48256, 5.48256, 5.48256, 5.48256
"SMAStrip (Nitinol)".205, 5.48233, 5.48233, 5.48233, 5.48233, 5.48233
"SMAStrip (Nitinol)".206, 5.48211, 5.48211, 5.48211, 5.48211, 5.48211
"SMAStrip (Nitinol)".207, 5.48188, 5.48188, 5.48188, 5.48188, 5.48188
"SMAStrip (Nitinol)".208, 5.48165, 5.48165, 5.48165, 5.48165, 5.48165
"SMAStrip (Nitinol)".209, 5.48339, 5.48339, 5.48339, 5.48339, 5.48339
"SMAStrip (Nitinol)".210, 5.46806, 5.46806, 5.46806, 5.46806, 5.46806
"SMAStrip (Nitinol)".211, 5.46717, 5.46717, 5.46717, 5.46717, 5.46717
"SMAStrip (Nitinol)".212, 5.46694, 5.46694, 5.46694, 5.46694, 5.46694
"SMAStrip (Nitinol)".213, 5.46672, 5.46672, 5.46672, 5.46672, 5.46672
"SMAStrip (Nitinol)".214, 5.46649, 5.46649, 5.46649, 5.46649, 5.46649
"SMAStrip (Nitinol)".215, 5.46626, 5.46626, 5.46626, 5.46626, 5.46626
"SMAStrip (Nitinol)".216, 5.46603, 5.46603, 5.46603, 5.46603, 5.46603
"SMAStrip (Nitinol)".217, 5.4658, 5.4658, 5.4658, 5.4658, 5.4658
"SMAStrip (Nitinol)".218, 5.46557, 5.46557, 5.46557, 5.46557, 5.46557
"SMAStrip (Nitinol)".219, 5.46533, 5.46533, 5.46533, 5.46533, 5.46533
"SMAStrip (Nitinol)".220, 5.46713, 5.46713, 5.46713, 5.46713, 5.46713
"SMAStrip (Nitinol)".221, 5.45176, 5.45176, 5.45176, 5.45176, 5.45176
"SMAStrip (Nitinol)".222, 5.45085, 5.45085, 5.45085, 5.45085, 5.45085
"SMAStrip (Nitinol)".223, 5.45062, 5.45062, 5.45062, 5.45062, 5.45062
"SMAStrip (Nitinol)".224, 5.45039, 5.45039, 5.45039, 5.45039, 5.45039
"SMAStrip (Nitinol)".225, 5.45016, 5.45016, 5.45016, 5.45016, 5.45016
"SMAStrip (Nitinol)".226, 5.44993, 5.44993, 5.44993, 5.44993, 5.44993
"SMAStrip (Nitinol)".227, 5.4497, 5.4497, 5.4497, 5.4497, 5.4497
"SMAStrip (Nitinol)".228, 5.44947, 5.44947, 5.44947, 5.44947, 5.44947
"SMAStrip (Nitinol)".229, 5.44923, 5.44923, 5.44923, 5.44923, 5.44923
"SMAStrip (Nitinol)".230, 5.44899, 5.44899, 5.44899, 5.44899, 5.44899
"SMAStrip (Nitinol)".231, 5.45083, 5.45083, 5.45083, 5.45083, 5.45083
"SMAStrip (Nitinol)".232, 5.43542, 5.43542, 5.43542, 5.43542, 5.43542
"SMAStrip (Nitinol)".233, 5.4345, 5.4345, 5.4345, 5.4345, 5.4345
"SMAStrip (Nitinol)".234, 5.43427, 5.43427, 5.43427, 5.43427, 5.43427
"SMAStrip (Nitinol)".235, 5.43404, 5.43404, 5.43404, 5.43404, 5.43404
"SMAStrip (Nitinol)".236, 5.4338, 5.4338, 5.4338, 5.4338, 5.4338
"SMAStrip (Nitinol)".237, 5.43357, 5.43357, 5.43357, 5.43357, 5.43357
"SMAStrip (Nitinol)".238, 5.43334, 5.43334, 5.43334, 5.43334, 5.43334
"SMAStrip (Nitinol)".239, 5.4331, 5.4331, 5.4331, 5.4331, 5.4331
"SMAStrip (Nitinol)".240, 5.43286, 5.43286, 5.43286, 5.43286, 5.43286
"SMAStrip (Nitinol)".241, 5.43262, 5.43262, 5.43262, 5.43262, 5.43262
"SMAStrip (Nitinol)".242, 5.43451, 5.43451, 5.43451, 5.43451, 5.43451
"SMAStrip (Nitinol)".243, 5.41905, 5.41905, 5.41905, 5.41905, 5.41905
"SMAStrip (Nitinol)".244, 5.41812, 5.41812, 5.41812, 5.41812, 5.41812
"SMAStrip (Nitinol)".245, 5.41788, 5.41788, 5.41788, 5.41788, 5.41788
"SMAStrip (Nitinol)".246, 5.41765, 5.41765, 5.41765, 5.41765, 5.41765
"SMAStrip (Nitinol)".247, 5.41741, 5.41741, 5.41741, 5.41741, 5.41741
"SMAStrip (Nitinol)".248, 5.41718, 5.41718, 5.41718, 5.41718, 5.41718
"SMAStrip (Nitinol)".249, 5.41694, 5.41694, 5.41694, 5.41694, 5.41694
"SMAStrip (Nitinol)".250, 5.4167, 5.4167, 5.4167, 5.4167, 5.4167
"SMAStrip (Nitinol)".251, 5.41646, 5.41646, 5.41646, 5.41646, 5.41646
"SMAStrip (Nitinol)".252, 5.41621, 5.41621, 5.41621, 5.41621, 5.41621
"SMAStrip (Nitinol)".253, 5.41815, 5.41815, 5.41815, 5.41815, 5.41815
"SMAStrip (Nitinol)".254, 5.40265, 5.40265, 5.40265, 5.40265, 5.40265
"SMAStrip (Nitinol)".255, 5.4017, 5.4017, 5.4017, 5.4017, 5.4017
"SMAStrip (Nitinol)".256, 5.40146, 5.40146, 5.40146, 5.40146, 5.40146
"SMAStrip (Nitinol)".257, 5.40123, 5.40123, 5.40123, 5.40123, 5.40123
"SMAStrip (Nitinol)".258, 5.40099, 5.40099, 5.40099, 5.40099, 5.40099
"SMAStrip (Nitinol)".259, 5.40075, 5.40075, 5.40075, 5.40075, 5.40075
"SMAStrip (Nitinol)".260, 5.40051, 5.40051, 5.40051, 5.40051, 5.40051
"SMAStrip (Nitinol)".261, 5.40027, 5.40027, 5.40027, 5.40027, 5.40027
"SMAStrip (Nitinol)".262, 5.40003, 5.40003, 5.40003, 5.40003, 5.40003
"SMAStrip (Nitinol)".263, 5.39978, 5.39978, 5.39978, 5.39978, 5.39978
"SMAStrip (Nitinol)".264, 5.40176, 5.40176, 5.40176, 5.40176, 5.40176
"SMAStrip (Nitinol)".265, 5.38622, 5.38622, 5.38622, 5.38622, 5.38622
"SMAStrip (Nitinol)".266, 5.38525, 5.38525, 5.38525, 5.38525, 5.38525
"SMAStrip (Nitinol)".267, 5.38501, 5.38501, 5.38501, 5.38501, 5.38501
"SMAStrip (Nitinol)".268, 5.38478, 5.38478, 5.38478, 5.38478, 5.38478
"SMAStrip (Nitinol)".269, 5.38454, 5.38454, 5.38454, 5.38454, 5.38454
"SMAStrip (Nitinol)".270, 5.3843, 5.3843, 5.3843, 5.3843, 5.3843
"SMAStrip (Nitinol)".271, 5.38406, 5.38406, 5.38406, 5.38406, 5.38406
"SMAStrip (Nitinol)".272, 5.38381, 5.38381, 5.38381, 5.38381, 5.38381
"SMAStrip (Nitinol)".273, 5.38357, 5.38357, 5.38357, 5.38357, 5.38357
"SMAStrip (Nitinol)".274, 5.38332, 5.38332, 5.38332, 5.38332, 5.38332
"SMAStrip (Nitinol)".275, 5.38534, 5.38534, 5.38534, 5.38534, 5.38534
"SMAStrip (Nitinol)".276, 5.36975, 5.36975, 5.36975, 5.36975, 5.36975
"SMAStrip (Nitinol)".277, 5.36878, 5.36878, 5.36878, 5.36878, 5.36878
"SMAStrip (Nitinol)".278, 5.36853, 5.36853, 5.36853, 5.36853, 5.36853
"SMAStrip (Nitinol)".279, 5.36829, 5.36829, 5.36829, 5.36829, 5.36829
"SMAStrip (Nitinol)".280, 5.36805, 5.36805, 5.36805, 5.36805, 5.36805
"SMAStrip (Nitinol)".281, 5.36781, 5.36781, 5.36781, 5.36781, 5.36781
"SMAStrip (Nitinol)".282, 5.36757, 5.36757, 5.36757, 5.36757, 5.36757
"SMAStrip (Nitinol)".283, 5.36732, 5.36732, 5.36732, 5.36732, 5.36732
"SMAStrip (Nitinol)".284, 5.36708, 5.36708, 5.36708, 5.36708, 5.36708
"SMAStrip (Nitinol)".285, 5.36683, 5.36683, 5.36683, 5.36683, 5.36683
"SMAStrip (Nitinol)".286, 5.36889, 5.36889, 5.36889, 5.36889, 5.36889
"SMAStrip (Nitinol)".287, 5.35326, 5.35326, 5.35326, 5.35326, 5.35326
"SMAStrip (Nitinol)".288, 5.35227, 5.35227, 5.35227, 5.35227, 5.35227
"SMAStrip (Nitinol)".289, 5.35202, 5.35202, 5.35202, 5.35202, 5.35202
"SMAStrip (Nitinol)".290, 5.35178, 5.35178, 5.35178, 5.35178, 5.35178
"SMAStrip (Nitinol)".291, 5.35154, 5.35154, 5.35154, 5.35154, 5.35154
"SMAStrip (Nitinol)".292, 5.3513, 5.3513, 5.3513, 5.3513, 5.3513
"SMAStrip (Nitinol)".293, 5.35105, 5.35105, 5.35105, 5.35105, 5.35105
"SMAStrip (Nitinol)".294, 5.35081, 5.35081, 5.35081, 5.35081, 5.35081
"SMAStrip (Nitinol)".295, 5.35056, 5.35056, 5.35056, 5.35056, 5.35056
"SMAStrip (Nitinol)".296, 5.35031, 5.35031, 5.35031, 5.35031, 5.35031
"SMAStrip (Nitinol)".297, 5.35241, 5.35241, 5.35241, 5.35241, 5.35241
"SMAStrip (Nitinol)".298, 5.33673, 5.33673, 5.33673, 5.33673, 5.33673
"SMAStrip (Nitinol)".299, 5.33573, 5.33573, 5.33573, 5.33573, 5.33573
"SMAStrip (Nitinol)".300, 5.33549, 5.33549, 5.33549, 5.33549, 5.33549
"SMAStrip (Nitinol)".301, 5.33524, 5.33524, 5.33524, 5.33524, 5.33524
"SMAStrip (Nitinol)".302, 5.335, 5.335, 5.335, 5.335, 5.335
"SMAStrip (Nitinol)".303, 5.33475, 5.33475, 5.33475, 5.33475, 5.33475
"SMAStrip (Nitinol)".304, 5.33451, 5.33451, 5.33451, 5.33451, 5.33451
"SMAStrip (Nitinol)".305, 5.33426, 5.33426, 5.33426, 5.33426, 5.33426
"SMAStrip (Nitinol)".306, 5.33401, 5.33401, 5.33401, 5.33401, 5.33401
"SMAStrip (Nitinol)".307, 5.33376, 5.33376, 5.33376, 5.33376, 5.33376
"SMAStrip (Nitinol)".308, 5.3359, 5.3359, 5.3359, 5.3359, 5.3359
"SMAStrip (Nitinol)".309, 5.32018, 5.32018, 5.32018, 5.32018, 5.32018
"SMAStrip (Nitinol)".310, 5.31917, 5.31917, 5.31917, 5.31917, 5.31917
"SMAStrip (Nitinol)".311, 5.31892, 5.31892, 5.31892, 5.31892, 5.31892
"SMAStrip (Nitinol)".312, 5.31867, 5.31867, 5.31867, 5.31867, 5.31867
"SMAStrip (Nitinol)".313, 5.31843, 5.31843, 5.31843, 5.31843, 5.31843
"SMAStrip (Nitinol)".314, 5.31818, 5.31818, 5.31818, 5.31818, 5.31818
"SMAStrip (Nitinol)".315, 5.31793, 5.31793, 5.31793, 5.31793, 5.31793
"SMAStrip (Nitinol)".316, 5.31769, 5.31769, 5.31769, 5.31769, 5.31769
"SMAStrip (Nitinol)".317, 5.31743, 5.31743, 5.31743, 5.31743, 5.31743
"SMAStrip (Nitinol)".318, 5.31718, 5.31718, 5.31718, 5.31718, 5.31718
"SMAStrip (Nitinol)".319, 5.31936, 5.31936, 5.31936, 5.31936, 5.31936
"SMAStrip (Nitinol)".320, 5.3036, 5.3036, 5.3036, 5.3036, 5.3036
"SMAStrip (Nitinol)".321, 5.30258, 5.30258, 5.30258, 5.30258, 5.30258
"SMAStrip (Nitinol)".322, 5.30233, 5.30233, 5.30233, 5.30233, 5.30233
"SMAStrip (Nitinol)".323, 5.30208, 5.30208, 5.30208, 5.30208, 5.30208
"SMAStrip (Nitinol)".324, 5.30183, 5.30183, 5.30183, 5.30183, 5.30183
"SMAStrip (Nitinol)".325, 5.30158, 5.30158, 5.30158, 5.30158, 5.30158
"SMAStrip (Nitinol)".326, 5.30134, 5.30134, 5.30134, 5.30134, 5.30134
"SMAStrip (Nitinol)".327, 5.30109, 5.30109, 5.30109, 5.30109, 5.30109
"SMAStrip (Nitinol)".328, 5.30083, 5.30083, 5.30083, 5.30083, 5.30083
"SMAStrip (Nitinol)".329, 5.30058, 5.30058, 5.30058, 5.30058, 5.30058
"SMAStrip (Nitinol)".330, 5.3028, 5.3028, 5.3028, 5.3028, 5.3028
"SMAStrip (Nitinol)".331, 5.28699, 5.28699, 5.28699, 5.28699, 5.28699
"SMAStrip (Nitinol)".332, 5.28596, 5.28596, 5.28596, 5.28596, 5.28596
"SMAStrip (Nitinol)".333, 5.28571, 5.28571, 5.28571, 5.28571, 5.28571
"SMAStrip (Nitinol)".334, 5.28546, 5.28546, 5.28546, 5.28546, 5.28546
"SMAStrip (Nitinol)".335, 5.28521, 5.28521, 5.28521, 5.28521, 5.28521
"SMAStrip (Nitinol)".336, 5.28496, 5.28496, 5.28496, 5.28496, 5.28496
"SMAStrip (Nitinol)".337, 5.28471, 5.28471, 5.28471, 5.28471, 5.28471
"SMAStrip (Nitinol)".338, 5.28446, 5.28446, 5.28446, 5.28446, 5.28446
"SMAStrip (Nitinol)".339, 5.28421, 5.28421, 5.28421, 5.28421, 5.28421
"SMAStrip (Nitinol)".340, 5.28395, 5.28395, 5.28395, 5.28395, 5.28395
"SMAStrip (Nitinol)".341, 5.2862, 5.2862, 5.2862, 5.2862, 5.2862
"SMAStrip (Nitinol)".342, 5.27035, 5.27035, 5.27035, 5.27035, 5.27035
"SMAStrip (Nitinol)".343, 5.26931, 5.26931, 5.26931, 5.26931, 5.26931
"SMAStrip (Nitinol)".344, 5.26906, 5.26906, 5.26906, 5.26906, 5.26906
"SMAStrip (Nitinol)".345, 5.26881, 5.26881, 5.26881, 5.26881, 5.26881
"SMAStrip (Nitinol)".346, 5.26856, 5.26856, 5.26856, 5.26856, 5.26856
"SMAStrip (Nitinol)".347, 5.26831, 5.26831, 5.26831, 5.26831, 5.26831
"SMAStrip (Nitinol)".348, 5.26806, 5.26806, 5.26806, 5.26806, 5.26806
"SMAStrip (Nitinol)".349, 5.26781, 5.26781, 5.26781, 5.26781, 5.26781
"SMAStrip (Nitinol)".350, 5.26755, 5.26755, 5.26755, 5.26755, 5.26755
"SMAStrip (Nitinol)".351, 5.2673, 5.2673, 5.2673, 5.2673, 5.2673
"SMAStrip (Nitinol)".352, 5.26958, 5.26958, 5.26958, 5.26958, 5.26958
"SMAStrip (Nitinol)".353, 5.25369, 5.25369, 5.25369, 5.25369, 5.25369
"SMAStrip (Nitinol)".354, 5.25264, 5.25264, 5.25264, 5.25264, 5.25264
"SMAStrip (Nitinol)".355, 5.25239, 5.25239, 5.25239, 5.25239, 5.25239
"SMAStrip (Nitinol)".356, 5.25214, 5.25214, 5.25214, 5.25214, 5.25214
"SMAStrip (Nitinol)".357, 5.25189, 5.25189, 5.25189, 5.25189, 5.25189
"SMAStrip (Nitinol)".358, 5.25164, 5.25164, 5.25164, 5.25164, 5.25164
"SMAStrip (Nitinol)".359, 5.25138, 5.25138, 5.25138, 5.25138, 5.25138
"SMAStrip (Nitinol)".360, 5.25113, 5.25113, 5.25113, 5.25113, 5.25113
"SMAStrip (Nitinol)".361, 5.25088, 5.25088, 5.25088, 5.25088, 5.25088
"SMAStrip (Nitinol)".362, 5.25062, 5.25062, 5.25062, 5.25062, 5.25062
"SMAStrip (Nitinol)".363, 5.25293, 5.25293, 5.25293, 5.25293, 5.25293
"SMAStrip (Nitinol)".364, 5.23701, 5.23701, 5.23701, 5.23701, 5.23701
"SMAStrip (Nitinol)".365, 5.23595, 5.23595, 5.23595, 5.23595, 5.23595
"SMAStrip (Nitinol)".366, 5.23569, 5.23569, 5.23569, 5.23569, 5.23569
"SMAStrip (Nitinol)".367, 5.23544, 5.23544, 5.23544, 5.23544, 5.23544
"SMAStrip (Nitinol)".368, 5.23519, 5.23519, 5.23519, 5.23519, 5.23519
"SMAStrip (Nitinol)".369, 5.23494, 5.23494, 5.23494, 5.23494, 5.23494
"SMAStrip (Nitinol)".370, 5.23468, 5.23468, 5.23468, 5.23468, 5.23468
"SMAStrip (Nitinol)".371, 5.23443, 5.23443, 5.23443, 5.23443, 5.23443
"SMAStrip (Nitinol)".372, 5.23417, 5.23417, 5.23417, 5.23417, 5.23417
"SMAStrip (Nitinol)".373, 5.23392, 5.23392, 5.23392, 5.23392, 5.23392
"SMAStrip (Nitinol)".374, 5.23625, 5.23625, 5.23625, 5.23625, 5.23625
"SMAStrip (Nitinol)".375, 5.22029, 5.22029, 5.22029, 5.22029, 5.22029
"SMAStrip (Nitinol)".376, 5.21923, 5.21923, 5.21923, 5.21923, 5.21923
"SMAStrip (Nitinol)".377, 5.21898, 5.21898, 5.21898, 5.21898, 5.21898
"SMAStrip (Nitinol)".378, 5.21872, 5.21872, 5.21872, 5.21872, 5.21872
"SMAStrip (Nitinol)".379, 5.21847, 5.21847, 5.21847, 5.21847, 5.21847
"SMAStrip (Nitinol)".380, 5.21821, 5.21821, 5.21821, 5.21821, 5.21821
"SMAStrip (Nitinol)".381, 5.21796, 5.21796, 5.21796, 5.21796, 5.21796
"SMAStrip (Nitinol)".382, 5.21771, 5.21771, 5.21771, 5.21771, 5.21771
"SMAStrip (Nitinol)".383, 5.21745, 5.21745, 5.21745, 5.21745, 5.21745
"SMAStrip (Nitinol)".384, 5.21719, 5.21719, 5.21719, 5.21719, 5.21719
"SMAStrip (Nitinol)".385, 5.21955, 5.21955, 5.21955, 5.21955, 5.21955
"SMAStrip (Nitinol)".386, 5.20356, 5.20356, 5.20356, 5.20356, 5.20356
"SMAStrip (Nitinol)".387, 5.20249, 5.20249, 5.20249, 5.20249, 5.20249
"SMAStrip (Nitinol)".388, 5.20223, 5.20223, 5.20223, 5.20223, 5.20223
"SMAStrip (Nitinol)".389, 5.20198, 5.20198, 5.20198, 5.20198, 5.20198
"SMAStrip (Nitinol)".390, 5.20172, 5.20172, 5.20172, 5.20172, 5.20172
"SMAStrip (Nitinol)".391, 5.20147, 5.20147, 5.20147, 5.20147, 5.20147
"SMAStrip (Nitinol)".392, 5.20122, 5.20122, 5.20122, 5.20122, 5.20122
"SMAStrip (Nitinol)".393, 5.20096, 5.20096, 5.20096, 5.20096, 5.20096
"SMAStrip (Nitinol)".394, 5.2007, 5.2007, 5.2007, 5.2007, 5.2007
"SMAStrip (Nitinol)".395, 5.20045, 5.20045, 5.20045, 5.20045, 5.20045
"SMAStrip (Nitinol)".396, 5.20283, 5.20283, 5.20283, 5.20283, 5.20283
"SMAStrip (Nitinol)".397, 5.18681, 5.18681, 5.18681, 5.18681, 5.18681
"SMAStrip (Nitinol)".398, 5.18573, 5.18573, 5.18573, 5.18573, 5.18573
"SMAStrip (Nitinol)".399, 5.18547, 5.18547, 5.18547, 5.18547, 5.18547
"SMAStrip (Nitinol)".400, 5.18522, 5.18522, 5.18522, 5.18522, 5.18522
"SMAStrip (Nitinol)".401, 5.18496, 5.18496, 5.18496, 5.18496, 5.18496
"SMAStrip (Nitinol)".402, 5.1847, 5.1847, 5.1847, 5.1847, 5.1847
"SMAStrip (Nitinol)".403, 5.18445, 5.18445, 5.18445, 5.18445, 5.18445
"SMAStrip (Nitinol)".404, 5.18419, 5.18419, 5.18419, 5.18419, 5.18419
"SMAStrip (Nitinol)".405, 5.18394, 5.18394, 5.18394, 5.18394, 5.18394
"SMAStrip (Nitinol)".406, 5.18368, 5.18368, 5.18368, 5.18368, 5.18368
"SMAStrip (Nitinol)".407, 5.18608, 5.18608, 5.18608, 5.18608, 5.18608
"SMAStrip (Nitinol)".408, 5.17004, 5.17004, 5.17004, 5.17004, 5.17004
"SMAStrip (Nitinol)".409, 5.16896, 5.16896, 5.16896, 5.16896, 5.16896
"SMAStrip (Nitinol)".410, 5.1687, 5.1687, 5.1687, 5.1687, 5.1687
"SMAStrip (Nitinol)".411, 5.16843, 5.16843, 5.16843, 5.16843, 5.16843
"SMAStrip (Nitinol)".412, 5.16818, 5.16818, 5.16818, 5.16818, 5.16818
"SMAStrip (Nitinol)".413, 5.16792, 5.16792, 5.16792, 5.16792, 5.16792
"SMAStrip (Nitinol)".414, 5.16766, 5.16766, 5.16766, 5.16766, 5.16766
"SMAStrip (Nitinol)".415, 5.16741, 5.16741, 5.16741, 5.16741, 5.16741
"SMAStrip (Nitinol)".416, 5.16715, 5.16715, 5.16715, 5.16715, 5.16715
"SMAStrip (Nitinol)".417, 5.16689, 5.16689, 5.16689, 5.16689, 5.16689
"SMAStrip (Nitinol)".418, 5.16931, 5.16931, 5.16931, 5.16931, 5.16931
"SMAStrip (Nitinol)".419, 5.15327, 5.15327, 5.15327, 5.15327, 5.15327
"SMAStrip (Nitinol)".420, 5.15218, 5.15218, 5.15218, 5.15218, 5.15218
"SMAStrip (Nitinol)".421, 5.1519, 5.1519, 5.1519, 5.1519, 5.1519
"SMAStrip (Nitinol)".422, 5.15163, 5.15163, 5.15163, 5.15163, 5.15163
"SMAStrip (Nitinol)".423, 5.15137, 5.15137, 5.15137, 5.15137, 5.15137
"SMAStrip (Nitinol)".424, 5.15111, 5.15111, 5.15111, 5.15111, 5.15111
"SMAStrip (Nitinol)".425, 5.15085, 5.15085, 5.15085, 5.15085, 5.15085
"SMAStrip (Nitinol)".426, 5.1506, 5.1506, 5.1506, 5.1506, 5.1506
"SMAStrip (Nitinol)".427, 5.15034, 5.15034, 5.15034, 5.15034, 5.15034
"SMAStrip (Nitinol)".428, 5.15008, 5.15008, 5.15008, 5.15008, 5.15008
"SMAStrip (Nitinol)".429, 5.15253, 5.15253, 5.15253, 5.15253, 5.15253
"SMAStrip (Nitinol)".430, 5.13651, 5.13651, 5.13651, 5.13651, 5.13651
"SMAStrip (Nitinol)".431, 5.13541, 5.13541, 5.13541, 5.13541, 5.13541
"SMAStrip (Nitinol)".432, 5.1351, 5.1351, 5.1351, 5.1351, 5.1351
"SMAStrip (Nitinol)".433, 5.13482, 5.13482, 5.13482, 5.13482, 5.13482
"SMAStrip (Nitinol)".434, 5.13455, 5.13455, 5.13455, 5.13455, 5.13455
"SMAStrip (Nitinol)".435, 5.13429, 5.13429, 5.13429, 5.13429, 5.13429
"SMAStrip (Nitinol)".436, 5.13403, 5.13403, 5.13403, 5.13403, 5.13403
"SMAStrip (Nitinol)".437, 5.13376, 5.13376, 5.13376, 5.13376, 5.13376
"SMAStrip (Nitinol)".438, 5.1335, 5.1335, 5.1335, 5.1335, 5.1335
"SMAStrip (Nitinol)".439, 5.13325, 5.13325, 5.13325, 5.13325, 5.13325
"SMAStrip (Nitinol)".440, 5.13572, 5.13572, 5.13572, 5.13572, 5.13572
"SMAStrip (Nitinol)".441, 5.11974, 5.11974, 5.11974, 5.11974, 5.11974
"SMAStrip (Nitinol)".442, 5.11861, 5.11861, 5.11861, 5.11861, 5.11861
"SMAStrip (Nitinol)".443, 5.11828, 5.11828, 5.11828, 5.11828, 5.11828
"SMAStrip (Nitinol)".444, 5.11798, 5.11798, 5.11798, 5.11798, 5.11798
"SMAStrip (Nitinol)".445, 5.11771, 5.11771, 5.11771, 5.11771, 5.11771
"SMAStrip (Nitinol)".446, 5.11744, 5.11744, 5.11744, 5.11744, 5.11744
"SMAStrip (Nitinol)".447, 5.11718, 5.11718, 5.11718, 5.11718, 5.11718
"SMAStrip (Nitinol)".448, 5.11691, 5.11691, 5.11691, 5.11691, 5.11691
"SMAStrip (Nitinol)".449, 5.11663, 5.11663, 5.11663, 5.11663, 5.11663
"SMAStrip (Nitinol)".450, 5.11633, 5.11633, 5.11633, 5.11633, 5.11633
"SMAStrip (Nitinol)".451, 5.11878, 5.11878, 5.11878, 5.11878, 5.11878
"SMAStrip (Nitinol)".452, 5.1029, 5.1029, 5.1029, 5.1029, 5.1029
"SMAStrip (Nitinol)".453, 5.10177, 5.10177, 5.10177, 5.10177, 5.10177
"SMAStrip (Nitinol)".454, 5.10143, 5.10143, 5.10143, 5.10143, 5.10143
"SMAStrip (Nitinol)".455, 5.10113, 5.10113, 5.10113, 5.10113, 5.10113
"SMAStrip (Nitinol)".456, 5.10085, 5.10085, 5.10085, 5.10085, 5.10085
"SMAStrip (Nitinol)".457, 5.10058, 5.10058, 5.10058, 5.10058, 5.10058
"SMAStrip (Nitinol)".458, 5.10031, 5.10031, 5.10031, 5.10031, 5.10031
"SMAStrip (Nitinol)".459, 5.10005, 5.10005, 5.10005, 5.10005, 5.10005
"SMAStrip (Nitinol)".460, 5.09976, 5.09976, 5.09976, 5.09976, 5.09976
"SMAStrip (Nitinol)".461, 5.09943, 5.09943, 5.09943, 5.09943, 5.09943
"SMAStrip (Nitinol)".462, 5.10186, 5.10186, 5.10186, 5.10186, 5.10186
"SMAStrip (Nitinol)".463, 5.086, 5.086, 5.086, 5.086, 5.086
"SMAStrip (Nitinol)".464, 5.08487, 5.08487, 5.08487, 5.08487, 5.08487
"SMAStrip (Nitinol)".465, 5.08454, 5.08454, 5.08454, 5.08454, 5.08454
"SMAStrip (Nitinol)".466, 5.08425, 5.08425, 5.08425, 5.08425, 5.08425
"SMAStrip (Nitinol)".467, 5.08397, 5.08397, 5.08397, 5.08397, 5.08397
"SMAStrip (Nitinol)".468, 5.0837, 5.0837, 5.0837, 5.0837, 5.0837
"SMAStrip (Nitinol)".469, 5.08343, 5.08343, 5.08343, 5.08343, 5.08343
"SMAStrip (Nitinol)".470, 5.08316, 5.08316, 5.08316, 5.08316, 5.08316
"SMAStrip (Nitinol)".471, 5.08288, 5.08288, 5.08288, 5.08288, 5.08288
"SMAStrip (Nitinol)".472, 5.08261, 5.08261, 5.08261, 5.08261, 5.08261
"SMAStrip (Nitinol)".473, 5.08509, 5.08509, 5.08509, 5.08509, 5.08509
"SMAStrip (Nitinol)".474, 5.06905, 5.06905, 5.06905, 5.06905, 5.06905
"SMAStrip (Nitinol)".475, 5.06793, 5.06793, 5.06793, 5.06793, 5.06793
"SMAStrip (Nitinol)".476, 5.06763, 5.06763, 5.06763, 5.06763, 5.06763
"SMAStrip (Nitinol)".477, 5.06734, 5.06734, 5.06734, 5.06734, 5.06734
"SMAStrip (Nitinol)".478, 5.06707, 5.06707, 5.06707, 5.06707, 5.06707
"SMAStrip (Nitinol)".479, 5.0668, 5.0668, 5.0668, 5.0668, 5.0668
"SMAStrip (Nitinol)".480, 5.06654, 5.06654, 5.06654, 5.06654, 5.06654
"SMAStrip (Nitinol)".481, 5.06627, 5.06627, 5.06627, 5.06627, 5.06627
"SMAStrip (Nitinol)".482, 5.06599, 5.06599, 5.06599, 5.06599, 5.06599
"SMAStrip (Nitinol)".483, 5.06569, 5.06569, 5.06569, 5.06569, 5.06569
"SMAStrip (Nitinol)".484, 5.06816, 5.06816, 5.06816, 5.06816, 5.06816
"SMAStrip (Nitinol)".485, 5.05205, 5.05205, 5.05205, 5.05205, 5.05205
"SMAStrip (Nitinol)".486, 5.05095, 5.05095, 5.05095, 5.05095, 5.05095
"SMAStrip (Nitinol)".487, 5.05069, 5.05069, 5.05069, 5.05069, 5.05069
"SMAStrip (Nitinol)".488, 5.05042, 5.05042, 5.05042, 5.05042, 5.05042
"SMAStrip (Nitinol)".489, 5.05015, 5.05015, 5.05015, 5.05015, 5.05015
"SMAStrip (Nitinol)".490, 5.04988, 5.04988, 5.04988, 5.04988, 5.04988
"SMAStrip (Nitinol)".491, 5.04962, 5.04962, 5.04962, 5.04962, 5.04962
"SMAStrip (Nitinol)".492, 5.04937, 5.04937, 5.04937, 5.04937, 5.04937
"SMAStrip (Nitinol)".493, 5.0491, 5.0491, 5.0491, 5.0491, 5.0491
"SMAStrip (Nitinol)".494, 5.04879, 5.04879, 5.04879, 5.04879, 5.04879
"SMAStrip (Nitinol)".495, 5.0512, 5.0512, 5.0512, 5.0512, 5.0512
"SMAStrip (Nitinol)".496, 5.03505, 5.03505, 5.03505, 5.03505, 5.03505
"SMAStrip (Nitinol)".497, 5.03397, 5.03397, 5.03397, 5.03397, 5.03397
"SMAStrip (Nitinol)".498, 5.03373, 5.03373, 5.03373, 5.03373, 5.03373
"SMAStrip (Nitinol)".499, 5.03347, 5.03347, 5.03347, 5.03347, 5.03347
"SMAStrip (Nitinol)".500, 5.03321, 5.03321, 5.03321, 5.03321, 5.03321
"SMAStrip (Nitinol)".501, 5.03295, 5.03295, 5.03295, 5.03295, 5.03295
"SMAStrip (Nitinol)".502, 5.03269, 5.03269, 5.03269, 5.03269, 5.03269
"SMAStrip (Nitinol)".503, 5.03244, 5.03244, 5.03244, 5.03244, 5.03244
"SMAStrip (Nitinol)".504, 5.03225, 5.03225, 5.03225, 5.03225, 5.03225
"SMAStrip (Nitinol)".505, 5.03214, 5.03214, 5.03214, 5.03214, 5.03214
"SMAStrip (Nitinol)".506, 5.03468, 5.03468, 5.03468, 5.03468, 5.03468
"SMAStrip (Nitinol)".507, 5.0181, 5.0181, 5.0181, 5.0181, 5.0181
"SMAStrip (Nitinol)".508, 5.01702, 5.01702, 5.01702, 5.01702, 5.01702
"SMAStrip (Nitinol)".509, 5.01677, 5.01677, 5.01677, 5.01677, 5.01677
"SMAStrip (Nitinol)".510, 5.01652, 5.01652, 5.01652, 5.01652, 5.01652
"SMAStrip (Nitinol)".511, 5.01626, 5.01626, 5.01626, 5.01626, 5.01626
"SMAStrip (Nitinol)".512, 5.01599, 5.01599, 5.01599, 5.01599, 5.01599
"SMAStrip (Nitinol)".513, 5.01574, 5.01574, 5.01574, 5.01574, 5.01574
"SMAStrip (Nitinol)".514, 5.01549, 5.01549, 5.01549, 5.01549, 5.01549
"SMAStrip (Nitinol)".515, 5.01532, 5.01532, 5.01532, 5.01532, 5.01532
"SMAStrip (Nitinol)".516, 5.01533, 5.01533, 5.01533, 5.01533, 5.01533
"SMAStrip (Nitinol)".517, 5.01806, 5.01806, 5.01806, 5.01806, 5.01806
"SMAStrip (Nitinol)".518, 5.00114, 5.00114, 5.00114, 5.00114, 5.00114
"SMAStrip (Nitinol)".519, 5.00006, 5.00006, 5.00006, 5.00006, 5.00006
"SMAStrip (Nitinol)".520, 4.9998, 4.9998, 4.9998, 4.9998, 4.9998
"SMAStrip (Nitinol)".521, 4.99955, 4.99955, 4.99955, 4.99955, 4.99955
"SMAStrip (Nitinol)".522, 4.99929, 4.99929, 4.99929, 4.99929, 4.99929
"SMAStrip (Nitinol)".523, 4.99902, 4.99902, 4.99902, 4.99902, 4.99902
"SMAStrip (Nitinol)".524, 4.99876, 4.99876, 4.99876, 4.99876, 4.99876
"SMAStrip (Nitinol)".525, 4.99851, 4.99851, 4.99851, 4.99851, 4.99851
"SMAStrip (Nitinol)".526, 4.99829, 4.99829, 4.99829, 4.99829, 4.99829
"SMAStrip (Nitinol)".527, 4.99814, 4.99814, 4.99814, 4.99814, 4.99814
"SMAStrip (Nitinol)".528, 5.00077, 5.00077, 5.00077, 5.00077, 5.00077
"SMAStrip (Nitinol)".529, 4.98416, 4.98416, 4.98416, 4.98416, 4.98416
"SMAStrip (Nitinol)".530, 4.98308, 4.98308, 4.98308, 4.98308, 4.98308
"SMAStrip (Nitinol)".531, 4.98282, 4.98282, 4.98282, 4.98282, 4.98282
"SMAStrip (Nitinol)".532, 4.98257, 4.98257, 4.98257, 4.98257, 4.98257
"SMAStrip (Nitinol)".533, 4.98231, 4.98231, 4.98231, 4.98231, 4.98231
"SMAStrip (Nitinol)".534, 4.98204, 4.98204, 4.98204, 4.98204, 4.98204
"SMAStrip (Nitinol)".535, 4.98178, 4.98178, 4.98178, 4.98178, 4.98178
"SMAStrip (Nitinol)".536, 4.98151, 4.98151, 4.98151, 4.98151, 4.98151
"SMAStrip (Nitinol)".537, 4.98123, 4.98123, 4.98123, 4.98123, 4.98123
"SMAStrip (Nitinol)".538, 4.98091, 4.98091, 4.98091, 4.98091, 4.98091
"SMAStrip (Nitinol)".539, 4.9834, 4.9834, 4.9834, 4.9834, 4.9834
"SMAStrip (Nitinol)".540, 4.96719, 4.96719, 4.96719, 4.96719, 4.96719
"SMAStrip (Nitinol)".541, 4.96611, 4.96611, 4.96611, 4.96611, 4.96611
"SMAStrip (Nitinol)".542, 4.96585, 4.96585, 4.96585, 4.96585, 4.96585
"SMAStrip (Nitinol)".543, 4.96558, 4.96558, 4.96558, 4.96558, 4.96558
"SMAStrip (Nitinol)".544, 4.96532, 4.96532, 4.96532, 4.96532, 4.96532
"SMAStrip (Nitinol)".545, 4.96505, 4.96505, 4.96505, 4.96505, 4.96505
"SMAStrip (Nitinol)".546, 4.96479, 4.96479, 4.96479, 4.96479, 4.96479
"SMAStrip (Nitinol)".547, 4.96451, 4.96451, 4.96451, 4.96451, 4.96451
"SMAStrip (Nitinol)".548, 4.96422, 4.96422, 4.96422, 4.96422, 4.96422
"SMAStrip (Nitinol)".549, 4.96391, 4.96391, 4.96391, 4.96391, 4.96391
"SMAStrip (Nitinol)".550, 4.96638, 4.96638, 4.96638, 4.96638, 4.96638
"SMAStrip (Nitinol)".551, 4.95029, 4.95029, 4.95029, 4.95029, 4.95029
"SMAStrip (Nitinol)".552, 4.9492, 4.9492, 4.9492, 4.9492, 4.9492
"SMAStrip (Nitinol)".553, 4.9489, 4.9489, 4.9489, 4.9489, 4.9489
"SMAStrip (Nitinol)".554, 4.94861, 4.94861, 4.94861, 4.94861, 4.94861
"SMAStrip (Nitinol)".555, 4.94832, 4.94832, 4.94832, 4.94832, 4.94832
"SMAStrip (Nitinol)".556, 4.94806, 4.94806, 4.94806, 4.94806, 4.94806
"SMAStrip (Nitinol)".557, 4.9478, 4.9478, 4.9478, 4.9478, 4.9478
"SMAStrip (Nitinol)".558, 4.94753, 4.94753, 4.94753, 4.94753, 4.94753
"SMAStrip (Nitinol)".559, 4.94725, 4.94725, 4.94725, 4.94725, 4.94725
"SMAStrip (Nitinol)".560, 4.94697, 4.94697, 4.94697, 4.94697, 4.94697
"SMAStrip (Nitinol)".561, 4.94945, 4.94945, 4.94945, 4.94945, 4.94945
"SMAStrip (Nitinol)".562, 4.93355, 4.93355, 4.93355, 4.93355, 4.93355
"SMAStrip (Nitinol)".563, 4.93242, 4.93242, 4.93242, 4.93242, 4.93242
"SMAStrip (Nitinol)".564, 4.932, 4.932, 4.932, 4.932, 4.932
"SMAStrip (Nitinol)".565, 4.93163, 4.93163, 4.93163, 4.93163, 4.93163
"SMAStrip (Nitinol)".566, 4.93132, 4.93132, 4.93132, 4.93132, 4.93132
"SMAStrip (Nitinol)".567, 4.93106, 4.93106, 4.93106, 4.93106, 4.93106
"SMAStrip (Nitinol)".568, 4.93082, 4.93082, 4.93082, 4.93082, 4.93082
"SMAStrip (Nitinol)".569, 4.93057, 4.93057, 4.93057, 4.93057, 4.93057
"SMAStrip (Nitinol)".570, 4.93031, 4.93031, 4.93031, 4.93031, 4.93031
"SMAStrip (Nitinol)".571, 4.93005, 4.93005, 4.93005, 4.93005, 4.93005
"SMAStrip (Nitinol)".572, 4.93251, 4.93251, 4.93251, 4.93251, 4.93251
"SMAStrip (Nitinol)".573, 4.91716, 4.91716, 4.91716, 4.91716, 4.91716
"SMAStrip (Nitinol)".574, 4.91589, 4.91589, 4.91589, 4.91589, 4.91589
"SMAStrip (Nitinol)".575, 4.91518, 4.91518, 4.91518, 4.91518, 4.91518
"SMAStrip (Nitinol)".576, 4.91465, 4.91465, 4.91465, 4.91465, 4.91465
"SMAStrip (Nitinol)".577, 4.9143, 4.9143, 4.9143, 4.9143, 4.9143
"SMAStrip (Nitinol)".578, 4.91405, 4.91405, 4.91405, 4.91405, 4.91405
"SMAStrip (Nitinol)".579, 4.91385, 4.91385, 4.91385, 4.91385, 4.91385
"SMAStrip (Nitinol)".580, 4.91366, 4.91366, 4.91366, 4.91366, 4.91366
"SMAStrip (Nitinol)".581, 4.91343, 4.91343, 4.91343, 4.91343, 4.91343
"SMAStrip (Nitinol)".582, 4.91319, 4.91319, 4.91319, 4.91319, 4.91319
"SMAStrip (Nitinol)".583, 4.91563, 4.91563, 4.91563, 4.91563, 4.91563
"SMAStrip (Nitinol)".584, 4.9006, 4.9006, 4.9006, 4.9006, 4.9006
"SMAStrip (Nitinol)".585, 4.89925, 4.89925, 4.89925, 4.89925, 4.89925
"SMAStrip (Nitinol)".586, 4.89835, 4.89835, 4.89835, 4.89835, 4.89835
"SMAStrip (Nitinol)".587, 4.89757, 4.89757, 4.89757, 4.89757, 4.89757
"SMAStrip (Nitinol)".588, 4.89713, 4.89713, 4.89713, 4.89713, 4.89713
"SMAStrip (Nitinol)".589, 4.89703, 4.89703, 4.89703, 4.89703, 4.89703
"SMAStrip (Nitinol)".590, 4.89705, 4.89705, 4.89705, 4.89705, 4.89705
"SMAStrip (Nitinol)".591, 4.89697, 4.89697, 4.89697, 4.89697, 4.89697
"SMAStrip (Nitinol)".592, 4.89675, 4.89675, 4.89675, 4.89675, 4.89675
"SMAStrip (Nitinol)".593, 4.89648, 4.89648, 4.89648, 4.89648, 4.89648
"SMAStrip (Nitinol)".594, 4.89885, 4.89885, 4.89885, 4.89885, 4.89885
"SMAStrip (Nitinol)".595, 4.88334, 4.88334, 4.88334, 4.88334, 4.88334
"SMAStrip (Nitinol)".596, 4.88213, 4.88213, 4.88213, 4.88213, 4.88213
"SMAStrip (Nitinol)".597, 4.88141, 4.88141, 4.88141, 4.88141, 4.88141
"SMAStrip (Nitinol)".598, 4.8805, 4.8805, 4.8805, 4.8805, 4.8805
"SMAStrip (Nitinol)".599, 4.8799, 4.8799, 4.8799, 4.8799, 4.8799
"SMAStrip (Nitinol)".600, 4.88007, 4.88007, 4.88007, 4.88007, 4.88007
"SMAStrip (Nitinol)".601, 4.88048, 4.88048, 4.88048, 4.88048, 4.88048
"SMAStrip (Nitinol)".602, 4.88056, 4.88056, 4.88056, 4.88056, 4.88056
"SMAStrip (Nitinol)".603, 4.88037, 4.88037, 4.88037, 4.88037, 4.88037
"SMAStrip (Nitinol)".604, 4.88008, 4.88008, 4.88008, 4.88008, 4.88008
"SMAStrip (Nitinol)".605, 4.88234, 4.88234, 4.88234, 4.88234, 4.88234
"SMAStrip (Nitinol)".606, 4.86658, 4.86658, 4.86658, 4.86658, 4.86658
"SMAStrip (Nitinol)".607, 4.86558, 4.86558, 4.86558, 4.86558, 4.86558
"SMAStrip (Nitinol)".608, 4.86511, 4.86511, 4.86511, 4.86511, 4.86511
"SMAStrip (Nitinol)".609, 4.86424, 4.86424, 4.86424, 4.86424, 4.86424
"SMAStrip (Nitinol)".610, 4.86354, 4.86354, 4.86354, 4.86354, 4.86354
"SMAStrip (Nitinol)".611, 4.86367, 4.86367, 4.86367, 4.86367, 4.86367
"SMAStrip (Nitinol)".612, 4.86409, 4.86409, 4.86409, 4.86409, 4.86409
"SMAStrip (Nitinol)".613, 4.86424, 4.86424, 4.86424, 4.86424, 4.86424
"SMAStrip (Nitinol)".614, 4.86426, 4.86426, 4.86426, 4.86426, 4.86426
"SMAStrip (Nitinol)".615, 4.8642, 4.8642, 4.8642, 4.8642, 4.8642
"SMAStrip (Nitinol)".616, 4.86644, 4.86644, 4.86644, 4.86644, 4.86644
"SMAStrip (Nitinol)".617, 4.85137, 4.85137, 4.85137, 4.85137, 4.85137
"SMAStrip (Nitinol)".618, 4.85046, 4.85046, 4.85046, 4.85046, 4.85046
"SMAStrip (Nitinol)".619, 4.85004, 4.85004, 4.85004, 4.85004, 4.85004
"SMAStrip (Nitinol)".620, 4.84931, 4.84931, 4.84931, 4.84931, 4.84931
"SMAStrip (Nitinol)".621, 4.84865, 4.84865, 4.84865, 4.84865, 4.84865
"SMAStrip (Nitinol)".622, 4.84848, 4.84848, 4.84848, 4.84848, 4.84848
"SMAStrip (Nitinol)".623, 4.84856, 4.84856, 4.84856, 4.84856, 4.84856
"SMAStrip (Nitinol)".624, 4.84863, 4.84863, 4.84863, 4.84863, 4.84863
"SMAStrip (Nitinol)".625, 4.8488, 4.8488, 4.8488, 4.8488, 4.8488
"SMAStrip (Nitinol)".626, 4.84902, 4.84902, 4.84902, 4.84902, 4.84902
"SMAStrip (Nitinol)".627, 4.8513, 4.8513, 4.8513, 4.8513, 4.8513
"SMAStrip (Nitinol)".628, 4.83696, 4.83696, 4.83696, 4.83696, 4.83696
"SMAStrip (Nitinol)".629, 4.83609, 4.83609, 4.83609, 4.83609, 4.83609
"SMAStrip (Nitinol)".630, 4.83574, 4.83574, 4.83574, 4.83574, 4.83574
"SMAStrip (Nitinol)".631, 4.83522, 4.83522, 4.83522, 4.83522, 4.83522
"SMAStrip (Nitinol)".632, 4.83475, 4.83475, 4.83475, 4.83475, 4.83475
"SMAStrip (Nitinol)".633, 4.83448, 4.83448, 4.83448, 4.83448, 4.83448
"SMAStrip (Nitinol)".634, 4.83437, 4.83437, 4.83437, 4.83437, 4.83437
"SMAStrip (Nitinol)".635, 4.83434, 4.83434, 4.83434, 4.83434, 4.83434
"SMAStrip (Nitinol)".636, 4.83442, 4.83442, 4.83442, 4.83442, 4.83442
"SMAStrip (Nitinol)".637, 4.83457, 4.83457, 4.83457, 4.83457, 4.83457
"SMAStrip (Nitinol)".638, 4.83674, 4.83674, 4.83674, 4.83674, 4.83674
"SMAStrip (Nitinol)".639, 4.82295, 4.82295, 4.82295, 4.82295, 4.82295
"SMAStrip (Nitinol)".640, 4.82214, 4.82214, 4.82214, 4.82214, 4.82214
"SMAStrip (Nitinol)".641, 4.8219, 4.8219, 4.8219, 4.8219, 4.8219
"SMAStrip (Nitinol)".642, 4.8216, 4.8216, 4.8216, 4.8216, 4.8216
"SMAStrip (Nitinol)".643, 4.82131, 4.82131, 4.82131, 4.82131, 4.82131
"SMAStrip (Nitinol)".644, 4.8211, 4.8211, 4.8211, 4.8211, 4.8211
"SMAStrip (Nitinol)".645, 4.82096, 4.82096, 4.82096, 4.82096, 4.82096
"SMAStrip (Nitinol)".646, 4.82087, 4.82087, 4.82087, 4.82087, 4.82087
"SMAStrip (Nitinol)".647, 4.82081, 4.82081, 4.82081, 4.82081, 4.82081
"SMAStrip (Nitinol)".648, 4.82076, 4.82076, 4.82076, 4.82076, 4.82076
"SMAStrip (Nitinol)".649, 4.82272, 4.82272, 4.82272, 4.82272, 4.82272
"SMAStrip (Nitinol)".650, 4.80954, 4.80954, 4.80954, 4.80954, 4.80954
"SMAStrip (Nitinol)".651, 4.80877, 4.80877, 4.80877, 4.80877, 4.80877
"SMAStrip (Nitinol)".652, 4.80858, 4.80858, 4.80858, 4.80858, 4.80858
"SMAStrip (Nitinol)".653, 4.80838, 4.80838, 4.80838, 4.80838, 4.80838
"SMAStrip (Nitinol)".654, 4.80818, 4.80818, 4.80818, 4.80818, 4.80818
"SMAStrip (Nitinol)".655, 4.80799, 4.80799, 4.80799, 4.80799, 4.80799
"SMAStrip (Nitinol)".656, 4.80783, 4.80783, 4.80783, 4.80783, 4.80783
"SMAStrip (Nitinol)".657, 4.80768, 4.80768, 4.80768, 4.80768, 4.80768
"SMAStrip (Nitinol)".658, 4.80756, 4.80756, 4.80756, 4.80756, 4.80756
"SMAStrip (Nitinol)".659, 4.80742, 4.80742, 4.80742, 4.80742, 4.80742
"SMAStrip (Nitinol)".660, 4.80925, 4.80925, 4.80925, 4.80925, 4.80925
"SMAStrip (Nitinol)".661, 4.7965, 4.7965, 4.7965, 4.7965, 4.7965
"SMAStrip (Nitinol)".662, 4.79576, 4.79576, 4.79576, 4.79576, 4.79576
"SMAStrip (Nitinol)".663, 4.79559, 4.79559, 4.79559, 4.79559, 4.79559
"SMAStrip (Nitinol)".664, 4.79542, 4.79542, 4.79542, 4.79542, 4.79542
"SMAStrip (Nitinol)".665, 4.79524, 4.79524, 4.79524, 4.79524, 4.79524
"SMAStrip (Nitinol)".666, 4.79506, 4.79506, 4.79506, 4.79506, 4.79506
"SMAStrip (Nitinol)".667, 4.79489, 4.79489, 4.79489, 4.79489, 4.79489
"SMAStrip (Nitinol)".668, 4.7947, 4.7947, 4.7947, 4.7947, 4.7947
"SMAStrip (Nitinol)".669, 4.79452, 4.79452, 4.79452, 4.79452, 4.79452
"SMAStrip (Nitinol)".670, 4.79435, 4.79435, 4.79435, 4.79435, 4.79435
"SMAStrip (Nitinol)".671, 4.79612, 4.79612, 4.79612, 4.79612, 4.79612
"SMAStrip (Nitinol)".672, 4.78362, 4.78362, 4.78362, 4.78362, 4.78362
"SMAStrip (Nitinol)".673, 4.78291, 4.78291, 4.78291, 4.78291, 4.78291
"SMAStrip (Nitinol)".674, 4.78277, 4.78277, 4.78277, 4.78277, 4.78277
"SMAStrip (Nitinol)".675, 4.78263, 4.78263, 4.78263, 4.78263, 4.78263
"SMAStrip (Nitinol)".676, 4.78248, 4.78248, 4.78248, 4.78248, 4.78248
"SMAStrip (Nitinol)".677, 4.78232, 4.78232, 4.78232, 4.78232, 4.78232
"SMAStrip (Nitinol)".678, 4.78213, 4.78213, 4.78213, 4.78213, 4.78213
"SMAStrip (Nitinol)".679, 4.78192, 4.78192, 4.78192, 4.78192, 4.78192
"SMAStrip (Nitinol)".680, 4.7817, 4.7817, 4.7817, 4.7817, 4.7817
"SMAStrip (Nitinol)".681, 4.78149, 4.78149, 4.78149, 4.78149, 4.78149
"SMAStrip (Nitinol)".682, 4.78319, 4.78319, 4.78319, 4.78319, 4.78319
"SMAStrip (Nitinol)".683, 4.77089, 4.77089, 4.77089, 4.77089, 4.77089
"SMAStrip (Nitinol)".684, 4.77021, 4.77021, 4.77021, 4.77021, 4.77021
"SMAStrip (Nitinol)".685, 4.77012, 4.77012, 4.77012, 4.77012, 4.77012
"SMAStrip (Nitinol)".686, 4.77004, 4.77004, 4.77004, 4.77004, 4.77004
"SMAStrip (Nitinol)".687, 4.76996, 4.76996, 4.76996, 4.76996, 4.76996
"SMAStrip (Nitinol)".688, 4.76984, 4.76984, 4.76984, 4.76984, 4.76984
"SMAStrip (Nitinol)".689, 4.76967, 4.76967, 4.76967, 4.76967, 4.76967
"SMAStrip (Nitinol)".690, 4.76944, 4.76944, 4.76944, 4.76944, 4.76944
"SMAStrip (Nitinol)".691, 4.76919, 4.76919, 4.76919, 4.76919, 4.76919
"SMAStrip (Nitinol)".692, 4.76895, 4.76895, 4.76895, 4.76895, 4.76895
"SMAStrip (Nitinol)".693, 4.77056, 4.77056, 4.77056, 4.77056, 4.77056
"SMAStrip (Nitinol)".694, 4.75831, 4.75831, 4.75831, 4.75831, 4.75831
"SMAStrip (Nitinol)".695, 4.75769, 4.75769, 4.75769, 4.75769, 4.75769
"SMAStrip (Nitinol)".696, 4.75769, 4.75769, 4.75769, 4.75769, 4.75769
"SMAStrip (Nitinol)".697, 4.75773, 4.75773, 4.75773, 4.75773, 4.75773
"SMAStrip (Nitinol)".698, 4.75777, 4.75777, 4.75777, 4.75777, 4.75777
"SMAStrip (Nitinol)".699, 4.75774, 4.75774, 4.75774, 4.75774, 4.75774
"SMAStrip (Nitinol)".700, 4.75761, 4.75761, 4.75761, 4.75761, 4.75761
"SMAStrip (Nitinol)".701, 4.75739, 4.75739, 4.75739, 4.75739, 4.75739
"SMAStrip (Nitinol)".702, 4.75711, 4.75711, 4.75711, 4.75711, 4.75711
"SMAStrip (Nitinol)".703, 4.75684, 4.75684, 4.75684, 4.75684, 4.75684
"SMAStrip (Nitinol)".704, 4.75835, 4.75835, 4.75835, 4.75835, 4.75835
"SMAStrip (Nitinol)".705, 4.74597, 4.74597, 4.74597, 4.74597, 4.74597
"SMAStrip (Nitinol)".706, 4.74543, 4.74543, 4.74543, 4.74543, 4.74543
"SMAStrip (Nitinol)".707, 4.74558, 4.74558, 4.74558, 4.74558, 4.74558
"SMAStrip (Nitinol)".708, 4.74581, 4.74581, 4.74581, 4.74581, 4.74581
"SMAStrip (Nitinol)".709, 4.74603, 4.74603, 4.74603, 4.74603, 4.74603
"SMAStrip (Nitinol)".710, 4.74614, 4.74614, 4.74614, 4.74614, 4.74614
"SMAStrip (Nitinol)".711, 4.74608, 4.74608, 4.74608, 4.74608, 4.74608
"SMAStrip (Nitinol)".712, 4.74588, 4.74588, 4.74588, 4.74588, 4.74588
"SMAStrip (Nitinol)".713, 4.74559, 4.74559, 4.74559, 4.74559, 4.74559
"SMAStrip (Nitinol)".714, 4.7453, 4.7453, 4.7453, 4.7453, 4.7453
"SMAStrip (Nitinol)".715, 4.74669, 4.74669, 4.74669, 4.74669, 4.74669
"SMAStrip (Nitinol)".716, 4.73402, 4.73402, 4.73402, 4.73402, 4.73402
"SMAStrip (Nitinol)".717, 4.73359, 4.73359, 4.73359, 4.73359, 4.73359
"SMAStrip (Nitinol)".718, 4.73392, 4.73392, 4.73392, 4.73392, 4.73392
"SMAStrip (Nitinol)".719, 4.73439, 4.73439, 4.73439, 4.73439, 4.73439
"SMAStrip (Nitinol)".720, 4.73483, 4.73483, 4.73483, 4.73483, 4.73483
"SMAStrip (Nitinol)".721, 4.7351, 4.7351, 4.7351, 4.7351, 4.7351
"SMAStrip (Nitinol)".722, 4.73514, 4.73514, 4.73514, 4.73514, 4.73514
"SMAStrip (Nitinol)".723, 4.73498, 4.73498, 4.73498, 4.73498, 4.73498
"SMAStrip (Nitinol)".724, 4.7347, 4.7347, 4.7347, 4.7347, 4.7347
"SMAStrip (Nitinol)".725, 4.73441, 4.73441, 4.73441, 4.73441, 4.73441
"SMAStrip (Nitinol)".726, 4.73569, 4.73569, 4.73569, 4.73569, 4.73569
"SMAStrip (Nitinol)".727, 4.72263, 4.72263, 4.72263, 4.72263, 4.72263
"SMAStrip (Nitinol)".728, 4.72231, 4.72231, 4.72231, 4.72231, 4.72231
"SMAStrip (Nitinol)".729, 4.72283, 4.72283, 4.72283, 4.72283, 4.72283
"SMAStrip (Nitinol)".730, 4.72355, 4.72355, 4.72355, 4.72355, 4.72355
"SMAStrip (Nitinol)".731, 4.7242, 4.7242, 4.7242, 4.7242, 4.7242
"SMAStrip (Nitinol)".732, 4.72463, 4.72463, 4.72463, 4.72463, 4.72463
"SMAStrip (Nitinol)".733, 4.72477, 4.72477, 4.72477, 4.72477, 4.72477
"SMAStrip (Nitinol)".734, 4.72466, 4.72466, 4.72466, 4.72466, 4.72466
"SMAStrip (Nitinol)".735, 4.72442, 4.72442, 4.72442, 4.72442, 4.72442
"SMAStrip (Nitinol)".736, 4.72416, 4.72416, 4.72416, 4.72416, 4.72416
"SMAStrip (Nitinol)".737, 4.72534, 4.72534, 4.72534, 4.72534, 4.72534
"SMAStrip (Nitinol)".738, 4.71198, 4.71198, 4.71198, 4.71198, 4.71198
"SMAStrip (Nitinol)".739, 4.71176, 4.71176, 4.71176, 4.71176, 4.71176
"SMAStrip (Nitinol)".740, 4.71243, 4.71243, 4.71243, 4.71243, 4.71243
"SMAStrip (Nitinol)".741, 4.71332, 4.71332, 4.71332, 4.71332, 4.71332
"SMAStrip (Nitinol)".742, 4.71412, 4.71412, 4.71412, 4.71412, 4.71412
"SMAStrip (Nitinol)".743, 4.71465, 4.71465, 4.71465, 4.71465, 4.71465
"SMAStrip (Nitinol)".744, 4.71487, 4.71487, 4.71487, 4.71487, 4.71487
"SMAStrip (Nitinol)".745, 4.71483, 4.71483, 4.71483, 4.71483, 4.71483
"SMAStrip (Nitinol)".746, 4.71465, 4.71465, 4.71465, 4.71465, 4.71465
"SMAStrip (Nitinol)".747, 4.71444, 4.71444, 4.71444, 4.71444, 4.71444
"SMAStrip (Nitinol)".748, 4.71556, 4.71556, 4.71556, 4.71556, 4.71556
"SMAStrip (Nitinol)".749, 4.70218, 4.70218, 4.70218, 4.70218, 4.70218
"SMAStrip (Nitinol)".750, 4.70202, 4.70202, 4.70202, 4.70202, 4.70202
"SMAStrip (Nitinol)".751, 4.70273, 4.70273, 4.70273, 4.70273, 4.70273
"SMAStrip (Nitinol)".752, 4.70365, 4.70365, 4.70365, 4.70365, 4.70365
"SMAStrip (Nitinol)".753, 4.70448, 4.70448, 4.70448, 4.70448, 4.70448
"SMAStrip (Nitinol)".754, 4.70505, 4.70505, 4.70505, 4.70505, 4.70505
"SMAStrip (Nitinol)".755, 4.70531, 4.70531, 4.70531, 4.70531, 4.70531
"SMAStrip (Nitinol)".756, 4.70534, 4.70534, 4.70534, 4.70534, 4.70534
"SMAStrip (Nitinol)".757, 4.70523, 4.70523, 4.70523, 4.70523, 4.70523
"SMAStrip (Nitinol)".758, 4.70508, 4.70508, 4.70508, 4.70508, 4.70508
"SMAStrip (Nitinol)".759, 4.70617, 4.70617, 4.70617, 4.70617, 4.70617
"SMAStrip (Nitinol)".760, 4.69315, 4.69315, 4.69315, 4.69315, 4.69315
"SMAStrip (Nitinol)".761, 4.693, 4.693, 4.693, 4.693, 4.693
"SMAStrip (Nitinol)".762, 4.69363, 4.69363, 4.69363, 4.69363, 4.69363
"SMAStrip (Nitinol)".763, 4.69445, 4.69445, 4.69445, 4.69445, 4.69445
"SMAStrip (Nitinol)".764, 4.69519, 4.69519, 4.69519, 4.69519, 4.69519
"SMAStrip (Nitinol)".765, 4.6957, 4.6957, 4.6957, 4.6957, 4.6957
"SMAStrip (Nitinol)".766, 4.69597, 4.69597, 4.69597, 4.69597, 4.69597
"SMAStrip (Nitinol)".767, 4.69604, 4.69604, 4.69604, 4.69604, 4.69604
"SMAStrip (Nitinol)".768, 4.696, 4.696, 4.696, 4.696, 4.696
"SMAStrip (Nitinol)".769, 4.69591, 4.69591, 4.69591, 4.69591, 4.69591
"SMAStrip (Nitinol)".770, 4.69699, 4.69699, 4.69699, 4.69699, 4.69699
"SMAStrip (Nitinol)".771, 4.68467, 4.68467, 4.68467, 4.68467, 4.68467
"SMAStrip (Nitinol)".772, 4.68452, 4.68452, 4.68452, 4.68452, 4.68452
"SMAStrip (Nitinol)".773, 4.68495, 4.68495, 4.68495, 4.68495, 4.68495
"SMAStrip (Nitinol)".774, 4.68555, 4.68555, 4.68555, 4.68555, 4.68555
"SMAStrip (Nitinol)".775, 4.68611, 4.68611, 4.68611, 4.68611, 4.68611
"SMAStrip (Nitinol)".776, 4.68651, 4.68651, 4.68651, 4.68651, 4.68651
"SMAStrip (Nitinol)".777, 4.68674, 4.68674, 4.68674, 4.68674, 4.68674
"SMAStrip (Nitinol)".778, 4.68684, 4.68684, 4.68684, 4.68684, 4.68684
"SMAStrip (Nitinol)".779, 4.68686, 4.68686, 4.68686, 4.68686, 4.68686
"SMAStrip (Nitinol)".780, 4.68681, 4.68681, 4.68681, 4.68681, 4.68681
"SMAStrip (Nitinol)".781, 4.68788, 4.68788, 4.68788, 4.68788, 4.68788
"SMAStrip (Nitinol)".782, 4.67644, 4.67644, 4.67644, 4.67644, 4.67644
"SMAStrip (Nitinol)".783, 4.67621, 4.67621, 4.67621, 4.67621, 4.67621
"SMAStrip (Nitinol)".784, 4.6765, 4.6765, 4.6765, 4.6765, 4.6765
"SMAStrip (Nitinol)".785, 4.67682, 4.67682, 4.67682, 4.67682, 4.67682
"SMAStrip (Nitinol)".786, 4.67717, 4.67717, 4.67717, 4.67717, 4.67717
"SMAStrip (Nitinol)".787, 4.67743, 4.67743, 4.67743, 4.67743, 4.67743
"SMAStrip (Nitinol)".788, 4.67761, 4.67761, 4.67761, 4.67761, 4.67761
"SMAStrip (Nitinol)".789, 4.67772, 4.67772, 4.67772, 4.67772, 4.67772
"SMAStrip (Nitinol)".790, 4.67776, 4.67776, 4.67776, 4.67776, 4.67776
"SMAStrip (Nitinol)".791, 4.67775, 4.67775, 4.67775, 4.67775, 4.67775
"SMAStrip (Nitinol)".792, 4.6788, 4.6788, 4.6788, 4.6788, 4.6788
"SMAStrip (Nitinol)".793, 4.66825, 4.66825, 4.66825, 4.66825, 4.66825
"SMAStrip (Nitinol)".794, 4.66795, 4.66795, 4.66795, 4.66795, 4.66795
"SMAStrip (Nitinol)".795, 4.66806, 4.66806, 4.66806, 4.66806, 4.66806
"SMAStrip (Nitinol)".796, 4.66818, 4.66818, 4.66818, 4.66818, 4.66818
"SMAStrip (Nitinol)".797, 4.66834, 4.66834, 4.66834, 4.66834, 4.66834
"SMAStrip (Nitinol)".798, 4.66848, 4.66848, 4.66848, 4.66848, 4.66848
"SMAStrip (Nitinol)".799, 4.6686, 4.6686, 4.6686, 4.6686, 4.6686
"SMAStrip (Nitinol)".800, 4.6687, 4.6687, 4.6687, 4.6687, 4.6687
"SMAStrip (Nitinol)".801, 4.66876, 4.66876, 4.66876, 4.66876, 4.66876
"SMAStrip (Nitinol)".802, 4.66877, 4.66877, 4.66877, 4.66877, 4.66877
"SMAStrip (Nitinol)".803, 4.66979, 4.66979, 4.66979, 4.66979, 4.66979
"SMAStrip (Nitinol)".804, 4.66002, 4.66002, 4.66002, 4.66002, 4.66002
"SMAStrip (Nitinol)".805, 4.65968, 4.65968, 4.65968, 4.65968, 4.65968
"SMAStrip (Nitinol)".806, 4.65967, 4.65967, 4.65967, 4.65967, 4.65967
"SMAStrip (Nitinol)".807, 4.65965, 4.65965, 4.65965, 4.65965, 4.65965
"SMAStrip (Nitinol)".808, 4.65968, 4.65968, 4.65968, 4.65968, 4.65968
"SMAStrip (Nitinol)".809, 4.65973, 4.65973, 4.65973, 4.65973, 4.65973
"SMAStrip (Nitinol)".810, 4.6598, 4.6598, 4.6598, 4.6598, 4.6598
"SMAStrip (Nitinol)".811, 4.65988, 4.65988, 4.65988, 4.65988, 4.65988
"SMAStrip (Nitinol)".812, 4.65995, 4.65995, 4.65995, 4.65995, 4.65995
"SMAStrip (Nitinol)".813, 4.65996, 4.65996, 4.65996, 4.65996, 4.65996
"SMAStrip (Nitinol)".814, 4.66094, 4.66094, 4.66094, 4.66094, 4.66094
"SMAStrip (Nitinol)".815, 4.6518, 4.6518, 4.6518, 4.6518, 4.6518
"SMAStrip (Nitinol)".816, 4.65146, 4.65146, 4.65146, 4.65146, 4.65146
"SMAStrip (Nitinol)".817, 4.65138, 4.65138, 4.65138, 4.65138, 4.65138
"SMAStrip (Nitinol)".818, 4.6513, 4.6513, 4.6513, 4.6513, 4.6513
"SMAStrip (Nitinol)".819, 4.65126, 4.65126, 4.65126, 4.65126, 4.65126
"SMAStrip (Nitinol)".820, 4.65126, 4.65126, 4.65126, 4.65126, 4.65126
"SMAStrip (Nitinol)".821, 4.6513, 4.6513, 4.6513, 4.6513, 4.6513
"SMAStrip (Nitinol)".822, 4.65137, 4.65137, 4.65137, 4.65137, 4.65137
"SMAStrip (Nitinol)".823, 4.65143, 4.65143, 4.65143, 4.65143, 4.65143
"SMAStrip (Nitinol)".824, 4.65144, 4.65144, 4.65144, 4.65144, 4.65144
"SMAStrip (Nitinol)".825, 4.65235, 4.65235, 4.65235, 4.65235, 4.65235
"SMAStrip (Nitinol)".826, 4.64368, 4.64368, 4.64368, 4.64368, 4.64368
"SMAStrip (Nitinol)".827, 4.64334, 4.64334, 4.64334, 4.64334, 4.64334
"SMAStrip (Nitinol)".828, 4.64326, 4.64326, 4.64326, 4.64326, 4.64326
"SMAStrip (Nitinol)".829, 4.64318, 4.64318, 4.64318, 4.64318, 4.64318
"SMAStrip (Nitinol)".830, 4.64314, 4.64314, 4.64314, 4.64314, 4.64314
"SMAStrip (Nitinol)".831, 4.64314, 4.64314, 4.64314, 4.64314, 4.64314
"SMAStrip (Nitinol)".832, 4.64318, 4.64318, 4.64318, 4.64318, 4.64318
"SMAStrip (Nitinol)".833, 4.64324, 4.64324, 4.64324, 4.64324, 4.64324
"SMAStrip (Nitinol)".834, 4.64329, 4.64329, 4.64329, 4.64329, 4.64329
"SMAStrip (Nitinol)".835, 4.6433, 4.6433, 4.6433, 4.6433, 4.6433
"SMAStrip (Nitinol)".836, 4.64414, 4.64414, 4.64414, 4.64414, 4.64414
"SMAStrip (Nitinol)".837, 4.63568, 4.63568, 4.63568, 4.63568, 4.63568
"SMAStrip (Nitinol)".838, 4.63537, 4.63537, 4.63537, 4.63537, 4.63537
"SMAStrip (Nitinol)".839, 4.63534, 4.63534, 4.63534, 4.63534, 4.63534
"SMAStrip (Nitinol)".840, 4.63533, 4.63533, 4.63533, 4.63533, 4.63533
"SMAStrip (Nitinol)".841, 4.63535, 4.63535, 4.63535, 4.63535, 4.63535
"SMAStrip (Nitinol)".842, 4.6354, 4.6354, 4.6354, 4.6354, 4.6354
"SMAStrip (Nitinol)".843, 4.63547, 4.63547, 4.63547, 4.63547, 4.63547
"SMAStrip (Nitinol)".844, 4.63554, 4.63554, 4.63554, 4.63554, 4.63554
"SMAStrip (Nitinol)".845, 4.63559, 4.63559, 4.63559, 4.63559, 4.63559
"SMAStrip (Nitinol)".846, 4.6356, 4.6356, 4.6356, 4.6356, 4.6356
"SMAStrip (Nitinol)".847, 4.63637, 4.63637, 4.63637, 4.63637, 4.63637
"SMAStrip (Nitinol)".848, 4.62781, 4.62781, 4.62781, 4.62781, 4.62781
"SMAStrip (Nitinol)".849, 4.62755, 4.62755, 4.62755, 4.62755, 4.62755
"SMAStrip (Nitinol)".850, 4.6276, 4.6276, 4.6276, 4.6276, 4.6276
"SMAStrip (Nitinol)".851, 4.62771, 4.62771, 4.62771, 4.62771, 4.62771
"SMAStrip (Nitinol)".852, 4.62786, 4.62786, 4.62786, 4.62786, 4.62786
"SMAStrip (Nitinol)".853, 4.62801, 4.62801, 4.62801, 4.62801, 4.62801
"SMAStrip (Nitinol)".854, 4.62815, 4.62815, 4.62815, 4.62815, 4.62815
"SMAStrip (Nitinol)".855, 4.62825, 4.62825, 4.62825, 4.62825, 4.62825
"SMAStrip (Nitinol)".856, 4.62832, 4.62832, 4.62832, 4.62832, 4.62832
"SMAStrip (Nitinol)".857, 4.62834, 4.62834, 4.62834, 4.62834, 4.62834
"SMAStrip (Nitinol)".858, 4.62904, 4.62904, 4.62904, 4.62904, 4.62904
"SMAStrip (Nitinol)".859, 4.62007, 4.62007, 4.62007, 4.62007, 4.62007
"SMAStrip (Nitinol)".860, 4.61987, 4.61987, 4.61987, 4.61987, 4.61987
"SMAStrip (Nitinol)".861, 4.62004, 4.62004, 4.62004, 4.62004, 4.62004
"SMAStrip (Nitinol)".862, 4.62031, 4.62031, 4.62031, 4.62031, 4.62031
"SMAStrip (Nitinol)".863, 4.62063, 4.62063, 4.62063, 4.62063, 4.62063
"SMAStrip (Nitinol)".864, 4.62092, 4.62092, 4.62092, 4.62092, 4.62092
"SMAStrip (Nitinol)".865, 4.62116, 4.62116, 4.62116, 4.62116, 4.62116
"SMAStrip (Nitinol)".866, 4.62133, 4.62133, 4.62133, 4.62133, 4.62133
"SMAStrip (Nitinol)".867, 4.62143, 4.62143, 4.62143, 4.62143, 4.62143
"SMAStrip (Nitinol)".868, 4.62147, 4.62147, 4.62147, 4.62147, 4.62147
"SMAStrip (Nitinol)".869, 4.62212, 4.62212, 4.62212, 4.62212, 4.62212
"SMAStrip (Nitinol)".870, 4.61247, 4.61247, 4.61247, 4.61247, 4.61247
"SMAStrip (Nitinol)".871, 4.61234, 4.61234, 4.61234, 4.61234, 4.61234
"SMAStrip (Nitinol)".872, 4.61265, 4.61265, 4.61265, 4.61265, 4.61265
"SMAStrip (Nitinol)".873, 4.61311, 4.61311, 4.61311, 4.61311, 4.61311
"SMAStrip (Nitinol)".874, 4.61362, 4.61362, 4.61362, 4.61362, 4.61362
"SMAStrip (Nitinol)".875, 4.61409, 4.61409, 4.61409, 4.61409, 4.61409
"SMAStrip (Nitinol)".876, 4.61445, 4.61445, 4.61445, 4.61445, 4.61445
"SMAStrip (Nitinol)".877, 4.6147, 4.6147, 4.6147, 4.6147, 4.6147
"SMAStrip (Nitinol)".878, 4.61485, 4.61485, 4.61485, 4.61485, 4.61485
"SMAStrip (Nitinol)".879, 4.6149, 4.6149, 4.6149, 4.6149, 4.6149
"SMAStrip (Nitinol)".880, 4.61551, 4.61551, 4.61551, 4.61551, 4.61551
"SMAStrip (Nitinol)".881, 4.60511, 4.60511, 4.60511, 4.60511, 4.60511
"SMAStrip (Nitinol)".882, 4.60505, 4.60505, 4.60505, 4.60505, 4.60505
"SMAStrip (Nitinol)".883, 4.60551, 4.60551, 4.60551, 4.60551, 4.60551
"SMAStrip (Nitinol)".884, 4.60614, 4.60614, 4.60614, 4.60614, 4.60614
"SMAStrip (Nitinol)".885, 4.60684, 4.60684, 4.60684, 4.60684, 4.60684
"SMAStrip (Nitinol)".886, 4.60747, 4.60747, 4.60747, 4.60747, 4.60747
"SMAStrip (Nitinol)".887, 4.60796, 4.60796, 4.60796, 4.60796, 4.60796
"SMAStrip (Nitinol)".888, 4.6083, 4.6083, 4.6083, 4.6083, 4.6083
"SMAStrip (Nitinol)".889, 4.60848, 4.60848, 4.60848, 4.60848, 4.60848
"SMAStrip (Nitinol)".890, 4.60856, 4.60856, 4.60856, 4.60856, 4.60856
"SMAStrip (Nitinol)".891, 4.60914, 4.60914, 4.60914, 4.60914, 4.60914
"SMAStrip (Nitinol)".892, 4.59811, 4.59811, 4.59811, 4.59811, 4.59811
"SMAStrip (Nitinol)".893, 4.59811, 4.59811, 4.59811, 4.59811, 4.59811
"SMAStrip (Nitinol)".894, 4.59868, 4.59868, 4.59868, 4.59868, 4.59868
"SMAStrip (Nitinol)".895, 4.59945, 4.59945, 4.59945, 4.59945, 4.59945
"SMAStrip (Nitinol)".896, 4.6003, 4.6003, 4.6003, 4.6003, 4.6003
"SMAStrip (Nitinol)".897, 4.60107, 4.60107, 4.60107, 4.60107, 4.60107
"SMAStrip (Nitinol)".898, 4.60165, 4.60165, 4.60165, 4.60165, 4.60165
"SMAStrip (Nitinol)".899, 4.60205, 4.60205, 4.60205, 4.60205, 4.60205
"SMAStrip (Nitinol)".900, 4.60227, 4.60227, 4.60227, 4.60227, 4.60227
"SMAStrip (Nitinol)".901, 4.60237, 4.60237, 4.60237, 4.60237, 4.60237
"SMAStrip (Nitinol)".902, 4.60292, 4.60292, 4.60292, 4.60292, 4.60292
"SMAStrip (Nitinol)".903, 4.59159, 4.59159, 4.59159, 4.59159, 4.59159
"SMAStrip (Nitinol)".904, 4.59163, 4.59163, 4.59163, 4.59163, 4.59163
"SMAStrip (Nitinol)".905, 4.59227, 4.59227, 4.59227, 4.59227, 4.59227
"SMAStrip (Nitinol)".906, 4.59311, 4.59311, 4.59311, 4.59311, 4.59311
"SMAStrip (Nitinol)".907, 4.59403, 4.59403, 4.59403, 4.59403, 4.59403
"SMAStrip (Nitinol)".908, 4.59486, 4.59486, 4.59486, 4.59486, 4.59486
"SMAStrip (Nitinol)".909, 4.5955, 4.5955, 4.5955, 4.5955, 4.5955
"SMAStrip (Nitinol)".910, 4.59593, 4.59593, 4.59593, 4.59593, 4.59593
"SMAStrip (Nitinol)".911, 4.59617, 4.59617, 4.59617, 4.59617, 4.59617
"SMAStrip (Nitinol)".912, 4.59627, 4.59627, 4.59627, 4.59627, 4.59627
"SMAStrip (Nitinol)".913, 4.5968, 4.5968, 4.5968, 4.5968, 4.5968
"SMAStrip (Nitinol)".914, 4.58559, 4.58559, 4.58559, 4.58559, 4.58559
"SMAStrip (Nitinol)".915, 4.58566, 4.58566, 4.58566, 4.58566, 4.58566
"SMAStrip (Nitinol)".916, 4.58626, 4.58626, 4.58626, 4.58626, 4.58626
"SMAStrip (Nitinol)".917, 4.58712, 4.58712, 4.58712, 4.58712, 4.58712
"SMAStrip (Nitinol)".918, 4.58804, 4.58804, 4.58804, 4.58804, 4.58804
"SMAStrip (Nitinol)".919, 4.58885, 4.58885, 4.58885, 4.58885, 4.58885
"SMAStrip (Nitinol)".920, 4.58948, 4.58948, 4.58948, 4.58948, 4.58948
"SMAStrip (Nitinol)".921, 4.5899, 4.5899, 4.5899, 4.5899, 4.5899
"SMAStrip (Nitinol)".922, 4.59014, 4.59014, 4.59014, 4.59014, 4.59014
"SMAStrip (Nitinol)".923, 4.59024, 4.59024, 4.59024, 4.59024, 4.59024
"SMAStrip (Nitinol)".924, 4.59073, 4.59073, 4.59073, 4.59073, 4.59073
"SMAStrip (Nitinol)".925, 4.58008, 4.58008, 4.58008, 4.58008, 4.58008
"SMAStrip (Nitinol)".926, 4.58016, 4.58016, 4.58016, 4.58016, 4.58016
"SMAStrip (Nitinol)".927, 4.58068, 4.58068, 4.58068, 4.58068, 4.58068
"SMAStrip (Nitinol)".928, 4.58146, 4.58146, 4.58146, 4.58146, 4.58146
"SMAStrip (Nitinol)".929, 4.58228, 4.58228, 4.58228, 4.58228, 4.58228
"SMAStrip (Nitinol)".930, 4.58301, 4.58301, 4.58301, 4.58301, 4.58301
"SMAStrip (Nitinol)".931, 4.58357, 4.58357, 4.58357, 4.58357, 4.58357
"SMAStrip (Nitinol)".932, 4.58394, 4.58394, 4.58394, 4.58394, 4.58394
"SMAStrip (Nitinol)".933, 4.58415, 4.58415, 4.58415, 4.58415, 4.58415
"SMAStrip (Nitinol)".934, 4.58424, 4.58424, 4.58424, 4.58424, 4.58424
"SMAStrip (Nitinol)".935, 4.58471, 4.58471, 4.58471, 4.58471, 4.58471
"SMAStrip (Nitinol)".936, 4.57491, 4.57491, 4.57491, 4.57491, 4.57491
"SMAStrip (Nitinol)".937, 4.57497, 4.57497, 4.57497, 4.57497, 4.57497
"SMAStrip (Nitinol)".938, 4.57539, 4.57539, 4.57539, 4.57539, 4.57539
"SMAStrip (Nitinol)".939, 4.57603, 4.57603, 4.57603, 4.57603, 4.57603
"SMAStrip (Nitinol)".940, 4.5767, 4.5767, 4.5767, 4.5767, 4.5767
"SMAStrip (Nitinol)".941, 4.57729, 4.57729, 4.57729, 4.57729, 4.57729
"SMAStrip (Nitinol)".942, 4.57774, 4.57774, 4.57774, 4.57774, 4.57774
"SMAStrip (Nitinol)".943, 4.57804, 4.57804, 4.57804, 4.57804, 4.57804
"SMAStrip (Nitinol)".944, 4.5782, 4.5782, 4.5782, 4.5782, 4.5782
"SMAStrip (Nitinol)".945, 4.57826, 4.57826, 4.57826, 4.57826, 4.57826
"SMAStrip (Nitinol)".946, 4.5787, 4.5787, 4.5787, 4.5787, 4.5787
"SMAStrip (Nitinol)".947, 4.56991, 4.56991, 4.56991, 4.56991, 4.56991
"SMAStrip (Nitinol)".948, 4.56993, 4.56993, 4.56993, 4.56993, 4.56993
"SMAStrip (Nitinol)".949, 4.57024, 4.57024, 4.57024, 4.57024, 4.57024
"SMAStrip (Nitinol)".950, 4.5707, 4.5707, 4.5707, 4.5707, 4.5707
"SMAStrip (Nitinol)".951, 4.5712, 4.5712, 4.5712, 4.5712, 4.5712
"SMAStrip (Nitinol)".952, 4.57163, 4.57163, 4.57163, 4.57163, 4.57163
"SMAStrip (Nitinol)".953, 4.57195, 4.57195, 4.57195, 4.57195, 4.57195
"SMAStrip (Nitinol)".954, 4.57216, 4.57216, 4.57216, 4.57216, 4.57216
"SMAStrip (Nitinol)".955, 4.57227, 4.57227, 4.57227, 4.57227, 4.57227
"SMAStrip (Nitinol)".956, 4.57231, 4.57231, 4.57231, 4.57231, 4.57231
"SMAStrip (Nitinol)".957, 4.57271, 4.57271, 4.57271, 4.57271, 4.57271
"SMAStrip (Nitinol)".958, 4.5649, 4.5649, 4.5649, 4.5649, 4.5649
"SMAStrip (Nitinol)".959, 4.56487, 4.56487, 4.56487, 4.56487, 4.56487
"SMAStrip (Nitinol)".960, 4.56507, 4.56507, 4.56507, 4.56507, 4.56507
"SMAStrip (Nitinol)".961, 4.56538, 4.56538, 4.56538, 4.56538, 4.56538
"SMAStrip (Nitinol)".962, 4.56569, 4.56569, 4.56569, 4.56569, 4.56569
"SMAStrip (Nitinol)".963, 4.56597, 4.56597, 4.56597, 4.56597, 4.56597
"SMAStrip (Nitinol)".964, 4.56617, 4.56617, 4.56617, 4.56617, 4.56617
"SMAStrip (Nitinol)".965, 4.56629, 4.56629, 4.56629, 4.56629, 4.56629
"SMAStrip (Nitinol)".966, 4.56635, 4.56635, 4.56635, 4.56635, 4.56635
"SMAStrip (Nitinol)".967, 4.56636, 4.56636, 4.56636, 4.56636, 4.56636
"SMAStrip (Nitinol)".968, 4.56673, 4.56673, 4.56673, 4.56673, 4.56673
"SMAStrip (Nitinol)".969, 4.55975, 4.55975, 4.55975, 4.55975, 4.55975
"SMAStrip (Nitinol)".970, 4.55968, 4.55968, 4.55968, 4.55968, 4.55968
"SMAStrip (Nitinol)".971, 4.5598, 4.5598, 4.5598, 4.5598, 4.5598
"SMAStrip (Nitinol)".972, 4.55996, 4.55996, 4.55996, 4.55996, 4.55996
"SMAStrip (Nitinol)".973, 4.56013, 4.56013, 4.56013, 4.56013, 4.56013
"SMAStrip (Nitinol)".974, 4.56028, 4.56028, 4.56028, 4.56028, 4.56028
"SMAStrip (Nitinol)".975, 4.56037, 4.56037, 4.56037, 4.56037, 4.56037
"SMAStrip (Nitinol)".976, 4.56042, 4.56042, 4.56042, 4.56042, 4.56042
"SMAStrip (Nitinol)".977, 4.56043, 4.56043, 4.56043, 4.56043, 4.56043
"SMAStrip (Nitinol)".978, 4.56042, 4.56042, 4.56042, 4.56042, 4.56042
"SMAStrip (Nitinol)".979, 4.56075, 4.56075, 4.56075, 4.56075, 4.56075
"SMAStrip (Nitinol)".980, 4.5544, 4.5544, 4.5544, 4.5544, 4.5544
"SMAStrip (Nitinol)".981, 4.55432, 4.55432, 4.55432, 4.55432, 4.55432
"SMAStrip (Nitinol)".982, 4.55436, 4.55436, 4.55436, 4.55436, 4.55436
"SMAStrip (Nitinol)".983, 4.55442, 4.55442, 4.55442, 4.55442, 4.55442
"SMAStrip (Nitinol)".984, 4.55449, 4.55449, 4.55449, 4.55449, 4.55449
"SMAStrip (Nitinol)".985, 4.55453, 4.55453, 4.55453, 4.55453, 4.55453
"SMAStrip (Nitinol)".986, 4.55455, 4.55455, 4.55455, 4.55455, 4.55455
"SMAStrip (Nitinol)".987, 4.55454, 4.55454, 4.55454, 4.55454, 4.55454
"SMAStrip (Nitinol)".988, 4.55451, 4.55451, 4.55451, 4.55451, 4.55451
"SMAStrip (Nitinol)".989, 4.55448, 4.55448, 4.55448, 4.55448, 4.55448
"SMAStrip (Nitinol)".990, 4.55478, 4.55478, 4.55478, 4.55478, 4.55478
"SMAStrip (Nitinol)".991, 4.54887, 4.54887, 4.54887, 4.54887, 4.54887
"SMAStrip (Nitinol)".992, 4.54877, 4.54877, 4.54877, 4.54877, 4.54877
"SMAStrip (Nitinol)".993, 4.54877, 4.54877, 4.54877, 4.54877, 4.54877
"SMAStrip (Nitinol)".994, 4.54877, 4.54877, 4.54877, 4.54877, 4.54877
"SMAStrip (Nitinol)".995, 4.54876, 4.54876, 4.54876, 4.54876, 4.54876
"SMAStrip (Nitinol)".996, 4.54874, 4.54874, 4.54874, 4.54874, 4.54874
"SMAStrip (Nitinol)".997, 4.5487, 4.5487, 4.5487, 4.5487, 4.5487
"SMAStrip (Nitinol)".998, 4.54865, 4.54865, 4.54865, 4.54865, 4.54865
"SMAStrip (Nitinol)".999, 4.5486, 4.5486, 4.5486, 4.5486, 4.5486
"SMAStrip (Nitinol)".1000, 4.54856, 4.54856, 4.54856, 4.54856, 4.54856
"SMAStrip (Nitinol)".1001, 4.54883, 4.54883, 4.54883, 4.54883, 4.54883
"SMAStrip (Nitinol)".1002, 4.54319, 4.54319, 4.54319, 4.54319, 4.54319
"SMAStrip (Nitinol)".1003, 4.54309, 4.54309, 4.54309, 4.54309, 4.54309
"SMAStrip (Nitinol)".1004, 4.54306, 4.54306, 4.54306, 4.54306, 4.54306
"SMAStrip (Nitinol)".1005, 4.54302, 4.54302, 4.54302, 4.54302, 4.54302
"SMAStrip (Nitinol)".1006, 4.54297, 4.54297, 4.54297, 4.54297, 4.54297
"SMAStrip (Nitinol)".1007, 4.54291, 4.54291, 4.54291, 4.54291, 4.54291
"SMAStrip (Nitinol)".1008, 4.54285, 4.54285, 4.54285, 4.54285, 4.54285
"SMAStrip (Nitinol)".1009, 4.54278, 4.54278, 4.54278, 4.54278, 4.54278
"SMAStrip (Nitinol)".1010, 4.54272, 4.54272, 4.54272, 4.54272, 4.54272
"SMAStrip (Nitinol)".1011, 4.54267, 4.54267, 4.54267, 4.54267, 4.54267
"SMAStrip (Nitinol)".1012, 4.5429, 4.5429, 4.5429, 4.5429, 4.5429
"SMAStrip (Nitinol)".1013, 4.53744, 4.53744, 4.53744, 4.53744, 4.53744
"SMAStrip (Nitinol)".1014, 4.53735, 4.53735, 4.53735, 4.53735, 4.53735
"SMAStrip (Nitinol)".1015, 4.53731, 4.53731, 4.53731, 4.53731, 4.53731
"SMAStrip (Nitinol)".1016, 4.53725, 4.53725, 4.53725, 4.53725, 4.53725
"SMAStrip (Nitinol)".1017, 4.53719, 4.53719, 4.53719, 4.53719, 4.53719
"SMAStrip (Nitinol)".1018, 4.53711, 4.53711, 4.53711, 4.53711, 4.53711
"SMAStrip (Nitinol)".1019, 4.53703, 4.53703, 4.53703, 4.53703, 4.53703
"SMAStrip (Nitinol)".1020, 4.53696, 4.53696, 4.53696, 4.53696, 4.53696
"SMAStrip (Nitinol)".1021, 4.53689, 4.53689, 4.53689, 4.53689, 4.53689
"SMAStrip (Nitinol)".1022, 4.53684, 4.53684, 4.53684, 4.53684, 4.53684
"SMAStrip (Nitinol)".1023, 4.53705, 4.53705, 4.53705, 4.53705, 4.53705
"SMAStrip (Nitinol)".1024, 4.53172, 4.53172, 4.53172, 4.53172, 4.53172
"SMAStrip (Nitinol)".1025, 4.53164, 4.53164, 4.53164, 4.53164, 4.53164
"SMAStrip (Nitinol)".1026, 4.5316, 4.5316, 4.5316, 4.5316, 4.5316
"SMAStrip (Nitinol)".1027, 4.53154, 4.53154, 4.53154, 4.53154, 4.53154
"SMAStrip (Nitinol)".1028, 4.53148, 4.53148, 4.53148, 4.53148, 4.53148
"SMAStrip (Nitinol)".1029, 4.5314, 4.5314, 4.5314, 4.5314, 4.5314
"SMAStrip (Nitinol)".1030, 4.53133, 4.53133, 4.53133, 4.53133, 4.53133
"SMAStrip (Nitinol)".1031, 4.53126, 4.53126, 4.53126, 4.53126, 4.53126
"SMAStrip (Nitinol)".1032, 4.5312, 4.5312, 4.5312, 4.5312, 4.5312
"SMAStrip (Nitinol)".1033, 4.53115, 4.53115, 4.53115, 4.53115, 4.53115
"SMAStrip (Nitinol)".1034, 4.53133, 4.53133, 4.53133, 4.53133, 4.53133
"SMAStrip (Nitinol)".1035, 4.52616, 4.52616, 4.52616, 4.52616, 4.52616
"SMAStrip (Nitinol)".1036, 4.52609, 4.52609, 4.52609, 4.52609, 4.52609
"SMAStrip (Nitinol)".1037, 4.52606, 4.52606, 4.52606, 4.52606, 4.52606
"SMAStrip (Nitinol)".1038, 4.52602, 4.52602, 4.52602, 4.52602, 4.52602
"SMAStrip (Nitinol)".1039, 4.52596, 4.52596, 4.52596, 4.52596, 4.52596
"SMAStrip (Nitinol)".1040, 4.5259, 4.5259, 4.5259, 4.5259, 4.5259
"SMAStrip (Nitinol)".1041, 4.52584, 4.52584, 4.52584, 4.52584, 4.52584
"SMAStrip (Nitinol)".1042, 4.52578, 4.52578, 4.52578, 4.52578, 4.52578
"SMAStrip (Nitinol)".1043, 4.52573, 4.52573, 4.52573, 4.52573, 4.52573
"SMAStrip (Nitinol)".1044, 4.5257, 4.5257, 4.5257, 4.5257, 4.5257
"SMAStrip (Nitinol)".1045, 4.52584, 4.52584, 4.52584, 4.52584, 4.52584
"SMAStrip (Nitinol)".1046, 4.52093, 4.52093, 4.52093, 4.52093, 4.52093
"SMAStrip (Nitinol)".1047, 4.52088, 4.52088, 4.52088, 4.52088, 4.52088
"SMAStrip (Nitinol)".1048, 4.52085, 4.52085, 4.52085, 4.52085, 4.52085
"SMAStrip (Nitinol)".1049, 4.52082, 4.52082, 4.52082, 4.52082, 4.52082
"SMAStrip (Nitinol)".1050, 4.52078, 4.52078, 4.52078, 4.52078, 4.52078
"SMAStrip (Nitinol)".1051, 4.52075, 4.52075, 4.52075, 4.52075, 4.52075
"SMAStrip (Nitinol)".1052, 4.5207, 4.5207, 4.5207, 4.5207, 4.5207
"SMAStrip (Nitinol)".1053, 4.52067, 4.52067, 4.52067, 4.52067, 4.52067
"SMAStrip (Nitinol)".1054, 4.52063, 4.52063, 4.52063, 4.52063, 4.52063
"SMAStrip (Nitinol)".1055, 4.52061, 4.52061, 4.52061, 4.52061, 4.52061
"SMAStrip (Nitinol)".1056, 4.52072, 4.52072, 4.52072, 4.52072, 4.52072
"SMAStrip (Nitinol)".1057, 4.51621, 4.51621, 4.51621, 4.51621, 4.51621
"SMAStrip (Nitinol)".1058, 4.51617, 4.51617, 4.51617, 4.51617, 4.51617
"SMAStrip (Nitinol)".1059, 4.51616, 4.51616, 4.51616, 4.51616, 4.51616
"SMAStrip (Nitinol)".1060, 4.51615, 4.51615, 4.51615, 4.51615, 4.51615
"SMAStrip (Nitinol)".1061, 4.51614, 4.51614, 4.51614, 4.51614, 4.51614
"SMAStrip (Nitinol)".1062, 4.51612, 4.51612, 4.51612, 4.51612, 4.51612
"SMAStrip (Nitinol)".1063, 4.5161, 4.5161, 4.5161, 4.5161, 4.5161
"SMAStrip (Nitinol)".1064, 4.51609, 4.51609, 4.51609, 4.51609, 4.51609
"SMAStrip (Nitinol)".1065, 4.51607, 4.51607, 4.51607, 4.51607, 4.51607
"SMAStrip (Nitinol)".1066, 4.51606, 4.51606, 4.51606, 4.51606, 4.51606
"SMAStrip (Nitinol)".1067, 4.51614, 4.51614, 4.51614, 4.51614, 4.51614
"SMAStrip (Nitinol)".1068, 4.51222, 4.51222, 4.51222, 4.51222, 4.51222
"SMAStrip (Nitinol)".1069, 4.51221, 4.51221, 4.51221, 4.51221, 4.51221
"SMAStrip (Nitinol)".1070, 4.51221, 4.51221, 4.51221, 4.51221, 4.51221
"SMAStrip (Nitinol)".1071, 4.51221, 4.51221, 4.51221, 4.51221, 4.51221
"SMAStrip (Nitinol)".1072, 4.51222, 4.51222, 4.51222, 4.51222, 4.51222
"SMAStrip (Nitinol)".1073, 4.51223, 4.51223, 4.51223, 4.51223, 4.51223
"SMAStrip (Nitinol)".1074, 4.51224, 4.51224, 4.51224, 4.51224, 4.51224
"SMAStrip (Nitinol)".1075, 4.51224, 4.51224, 4.51224, 4.51224, 4.51224
"SMAStrip (Nitinol)".1076, 4.51224, 4.51224, 4.51224, 4.51224, 4.51224
"SMAStrip (Nitinol)".1077, 4.51224, 4.51224, 4.51224, 4.51224, 4.51224
"SMAStrip (Nitinol)".1078, 4.5123, 4.5123, 4.5123, 4.5123, 4.5123
"SMAStrip (Nitinol)".1079, 4.50919, 4.50919, 4.50919, 4.50919, 4.50919
"SMAStrip (Nitinol)".1080, 4.50918, 4.50918, 4.50918, 4.50918, 4.50918
"SMAStrip (Nitinol)".1081, 4.50919, 4.50919, 4.50919, 4.50919, 4.50919
"SMAStrip (Nitinol)".1082, 4.50921, 4.50921, 4.50921, 4.50921, 4.50921
"SMAStrip (Nitinol)".1083, 4.50924, 4.50924, 4.50924, 4.50924, 4.50924
"SMAStrip (Nitinol)".1084, 4.50927, 4.50927, 4.50927, 4.50927, 4.50927
"SMAStrip (Nitinol)".1085, 4.5093, 4.5093, 4.5093, 4.5093, 4.5093
"SMAStrip (Nitinol)".1086, 4.50932, 4.50932, 4.50932, 4.50932, 4.50932
"SMAStrip (Nitinol)".1087, 4.50934, 4.50934, 4.50934, 4.50934, 4.50934
"SMAStrip (Nitinol)".1088, 4.50935, 4.50935, 4.50935, 4.50935, 4.50935
"SMAStrip (Nitinol)".1089, 4.50938, 4.50938, 4.50938, 4.50938, 4.50938
"SMAStrip (Nitinol)".1090, 4.50729, 4.50729, 4.50729, 4.50729, 4.50729
"SMAStrip (Nitinol)".1091, 4.5073, 4.5073, 4.5073, 4.5073, 4.5073
"SMAStrip (Nitinol)".1092, 4.50732, 4.50732, 4.50732, 4.50732, 4.50732
"SMAStrip (Nitinol)".1093, 4.50735, 4.50735, 4.50735, 4.50735, 4.50735
"SMAStrip (Nitinol)".1094, 4.50739, 4.50739, 4.50739, 4.50739, 4.50739
"SMAStrip (Nitinol)".1095, 4.50743, 4.50743, 4.50743, 4.50743, 4.50743
"SMAStrip (Nitinol)".1096, 4.50747, 4.50747, 4.50747, 4.50747, 4.50747
"SMAStrip (Nitinol)".1097, 4.50751, 4.50751, 4.50751, 4.50751, 4.50751
"SMAStrip (Nitinol)".1098, 4.50753, 4.50753, 4.50753, 4.50753, 4.50753
"SMAStrip (Nitinol)".1099, 4.50755, 4.50755, 4.50755, 4.50755, 4.50755
"SMAStrip (Nitinol)".1100, 4.50756, 4.50756, 4.50756, 4.50756, 4.50756
"SMAStrip (Nitinol)".1101, 4.50664, 4.50664, 4.50664, 4.50664, 4.50664
"SMAStrip (Nitinol)".1102, 4.50663, 4.50663, 4.50663, 4.50663, 4.50663
"SMAStrip (Nitinol)".1103, 4.50665, 4.50665, 4.50665, 4.50665, 4.50665
"SMAStrip (Nitinol)".1104, 4.50669, 4.50669, 4.50669, 4.50669, 4.50669
"SMAStrip (Nitinol)".1105, 4.50673, 4.50673, 4.50673, 4.50673, 4.50673
"SMAStrip (Nitinol)".1106, 4.50678, 4.50678, 4.50678, 4.50678, 4.50678
"SMAStrip (Nitinol)".1107, 4.50682, 4.50682, 4.50682, 4.50682, 4.50682
"SMAStrip (Nitinol)".1108, 4.50686, 4.50686, 4.50686, 4.50686, 4.50686
"SMAStrip (Nitinol)".1109, 4.50689, 4.50689, 4.50689, 4.50689, 4.50689
"SMAStrip (Nitinol)".1110, 4.50691, 4.50691, 4.50691, 4.50691, 4.50691
"SMAStrip (Nitinol)".1111, 4.50691, 4.50691, 4.50691, 4.50691, 4.50691
** ----------------------------------------------------------------
** 
** STEP: Heat_08
** 
*Step, name=Heat_08, nlgeom=YES, inc=200
*Coupled Temperature-displacement, creep=none, deltmx=5.
0.1, 15., 4e-05, 5.
** 
** BOUNDARY CONDITIONS
** 
** Name: FixEdge Type: Symmetry/Antisymmetry/Encastre
*Boundary
Fixed-Set, ENCASTRE
** 
** LOADS
** 
** Name: Load_08   Type: Surface heat flux Using Field: AnalyticalField-1
*Dflux
"SMAStrip (Nitinol)".1, SPOS, 384.015
"SMAStrip (Nitinol)".2, SPOS, 385.225
"SMAStrip (Nitinol)".3, SPOS, 385.707
"SMAStrip (Nitinol)".4, SPOS, 385.567
"SMAStrip (Nitinol)".5, SPOS, 386.593
"SMAStrip (Nitinol)".6, SPOS, 386.385
"SMAStrip (Nitinol)".7, SPOS, 386.416
"SMAStrip (Nitinol)".8, SPOS, 385.39
"SMAStrip (Nitinol)".9, SPOS, 385.059
"SMAStrip (Nitinol)".10, SPOS, 386.812
"SMAStrip (Nitinol)".11, SPOS, 376.652
"SMAStrip (Nitinol)".12, SPOS, 376.449
"SMAStrip (Nitinol)".13, SPOS, 376.333
"SMAStrip (Nitinol)".14, SPOS, 376.218
"SMAStrip (Nitinol)".15, SPOS, 376.101
"SMAStrip (Nitinol)".16, SPOS, 375.983
"SMAStrip (Nitinol)".17, SPOS, 375.868
"SMAStrip (Nitinol)".18, SPOS, 375.751
"SMAStrip (Nitinol)".19, SPOS, 375.63
"SMAStrip (Nitinol)".20, SPOS, 375.318
"SMAStrip (Nitinol)".21, SPOS, 369.273
"SMAStrip (Nitinol)".22, SPOS, 369.058
"SMAStrip (Nitinol)".23, SPOS, 368.933
"SMAStrip (Nitinol)".24, SPOS, 368.807
"SMAStrip (Nitinol)".25, SPOS, 368.681
"SMAStrip (Nitinol)".26, SPOS, 368.556
"SMAStrip (Nitinol)".27, SPOS, 368.43
"SMAStrip (Nitinol)".28, SPOS, 368.304
"SMAStrip (Nitinol)".29, SPOS, 368.177
"SMAStrip (Nitinol)".30, SPOS, 366.681
"SMAStrip (Nitinol)".31, SPOS, 361.812
"SMAStrip (Nitinol)".32, SPOS, 361.591
"SMAStrip (Nitinol)".33, SPOS, 361.462
"SMAStrip (Nitinol)".34, SPOS, 361.332
"SMAStrip (Nitinol)".35, SPOS, 361.205
"SMAStrip (Nitinol)".36, SPOS, 361.076
"SMAStrip (Nitinol)".37, SPOS, 360.948
"SMAStrip (Nitinol)".38, SPOS, 360.818
"SMAStrip (Nitinol)".39, SPOS, 360.689
"SMAStrip (Nitinol)".40, SPOS, 360.795
"SMAStrip (Nitinol)".41, SPOS, 354.332
"SMAStrip (Nitinol)".42, SPOS, 354.101
"SMAStrip (Nitinol)".43, SPOS, 353.97
"SMAStrip (Nitinol)".44, SPOS, 353.838
"SMAStrip (Nitinol)".45, SPOS, 353.706
"SMAStrip (Nitinol)".46, SPOS, 353.575
"SMAStrip (Nitinol)".47, SPOS, 353.444
"SMAStrip (Nitinol)".48, SPOS, 353.312
"SMAStrip (Nitinol)".49, SPOS, 353.181
"SMAStrip (Nitinol)".50, SPOS, 353.302
"SMAStrip (Nitinol)".51, SPOS, 346.829
"SMAStrip (Nitinol)".52, SPOS, 346.591
"SMAStrip (Nitinol)".53, SPOS, 346.457
"SMAStrip (Nitinol)".54, SPOS, 346.323
"SMAStrip (Nitinol)".55, SPOS, 346.189
"SMAStrip (Nitinol)".56, SPOS, 346.055
"SMAStrip (Nitinol)".57, SPOS, 345.921
"SMAStrip (Nitinol)".58, SPOS, 345.786
"SMAStrip (Nitinol)".59, SPOS, 345.652
"SMAStrip (Nitinol)".60, SPOS, 345.789
"SMAStrip (Nitinol)".61, SPOS, 339.3
"SMAStrip (Nitinol)".62, SPOS, 339.058
"SMAStrip (Nitinol)".63, SPOS, 338.923
"SMAStrip (Nitinol)".64, SPOS, 338.788
"SMAStrip (Nitinol)".65, SPOS, 338.651
"SMAStrip (Nitinol)".66, SPOS, 338.514
"SMAStrip (Nitinol)".67, SPOS, 338.377
"SMAStrip (Nitinol)".68, SPOS, 338.241
"SMAStrip (Nitinol)".69, SPOS, 338.101
"SMAStrip (Nitinol)".70, SPOS, 338.255
"SMAStrip (Nitinol)".71, SPOS, 331.763
"SMAStrip (Nitinol)".72, SPOS, 331.51
"SMAStrip (Nitinol)".73, SPOS, 331.371
"SMAStrip (Nitinol)".74, SPOS, 331.232
"SMAStrip (Nitinol)".75, SPOS, 331.094
"SMAStrip (Nitinol)".76, SPOS, 330.955
"SMAStrip (Nitinol)".77, SPOS, 330.815
"SMAStrip (Nitinol)".78, SPOS, 330.676
"SMAStrip (Nitinol)".79, SPOS, 330.535
"SMAStrip (Nitinol)".80, SPOS, 330.703
"SMAStrip (Nitinol)".81, SPOS, 324.198
"SMAStrip (Nitinol)".82, SPOS, 323.94
"SMAStrip (Nitinol)".83, SPOS, 323.8
"SMAStrip (Nitinol)".84, SPOS, 323.658
"SMAStrip (Nitinol)".85, SPOS, 323.516
"SMAStrip (Nitinol)".86, SPOS, 323.374
"SMAStrip (Nitinol)".87, SPOS, 323.234
"SMAStrip (Nitinol)".88, SPOS, 323.091
"SMAStrip (Nitinol)".89, SPOS, 322.948
"SMAStrip (Nitinol)".90, SPOS, 323.133
"SMAStrip (Nitinol)".91, SPOS, 316.618
"SMAStrip (Nitinol)".92, SPOS, 316.353
"SMAStrip (Nitinol)".93, SPOS, 316.209
"SMAStrip (Nitinol)".94, SPOS, 316.061
"SMAStrip (Nitinol)".95, SPOS, 315.92
"SMAStrip (Nitinol)".96, SPOS, 315.777
"SMAStrip (Nitinol)".97, SPOS, 315.634
"SMAStrip (Nitinol)".98, SPOS, 315.489
"SMAStrip (Nitinol)".99, SPOS, 315.345
"SMAStrip (Nitinol)".100, SPOS, 315.543
"SMAStrip (Nitinol)".101, SPOS, 309.019
"SMAStrip (Nitinol)".102, SPOS, 308.746
"SMAStrip (Nitinol)".103, SPOS, 308.6
"SMAStrip (Nitinol)".104, SPOS, 308.454
"SMAStrip (Nitinol)".105, SPOS, 308.308
"SMAStrip (Nitinol)".106, SPOS, 308.161
"SMAStrip (Nitinol)".107, SPOS, 308.015
"SMAStrip (Nitinol)".108, SPOS, 307.869
"SMAStrip (Nitinol)".109, SPOS, 307.722
"SMAStrip (Nitinol)".110, SPOS, 307.934
"SMAStrip (Nitinol)".111, SPOS, 301.4
"SMAStrip (Nitinol)".112, SPOS, 301.121
"SMAStrip (Nitinol)".113, SPOS, 300.97
"SMAStrip (Nitinol)".114, SPOS, 300.823
"SMAStrip (Nitinol)".115, SPOS, 300.675
"SMAStrip (Nitinol)".116, SPOS, 300.528
"SMAStrip (Nitinol)".117, SPOS, 300.38
"SMAStrip (Nitinol)".118, SPOS, 300.232
"SMAStrip (Nitinol)".119, SPOS, 300.082
"SMAStrip (Nitinol)".120, SPOS, 300.308
"SMAStrip (Nitinol)".121, SPOS, 293.763
"SMAStrip (Nitinol)".122, SPOS, 293.479
"SMAStrip (Nitinol)".123, SPOS, 293.329
"SMAStrip (Nitinol)".124, SPOS, 293.178
"SMAStrip (Nitinol)".125, SPOS, 293.025
"SMAStrip (Nitinol)".126, SPOS, 292.876
"SMAStrip (Nitinol)".127, SPOS, 292.726
"SMAStrip (Nitinol)".128, SPOS, 292.576
"SMAStrip (Nitinol)".129, SPOS, 292.424
"SMAStrip (Nitinol)".130, SPOS, 292.664
"SMAStrip (Nitinol)".131, SPOS, 286.11
"SMAStrip (Nitinol)".132, SPOS, 285.818
"SMAStrip (Nitinol)".133, SPOS, 285.666
"SMAStrip (Nitinol)".134, SPOS, 285.513
"SMAStrip (Nitinol)".135, SPOS, 285.361
"SMAStrip (Nitinol)".136, SPOS, 285.209
"SMAStrip (Nitinol)".137, SPOS, 285.056
"SMAStrip (Nitinol)".138, SPOS, 284.903
"SMAStrip (Nitinol)".139, SPOS, 284.751
"SMAStrip (Nitinol)".140, SPOS, 285.004
"SMAStrip (Nitinol)".141, SPOS, 278.437
"SMAStrip (Nitinol)".142, SPOS, 278.143
"SMAStrip (Nitinol)".143, SPOS, 277.989
"SMAStrip (Nitinol)".144, SPOS, 277.834
"SMAStrip (Nitinol)".145, SPOS, 277.68
"SMAStrip (Nitinol)".146, SPOS, 277.526
"SMAStrip (Nitinol)".147, SPOS, 277.371
"SMAStrip (Nitinol)".148, SPOS, 277.216
"SMAStrip (Nitinol)".149, SPOS, 277.061
"SMAStrip (Nitinol)".150, SPOS, 277.326
"SMAStrip (Nitinol)".151, SPOS, 270.754
"SMAStrip (Nitinol)".152, SPOS, 270.451
"SMAStrip (Nitinol)".153, SPOS, 270.295
"SMAStrip (Nitinol)".154, SPOS, 270.139
"SMAStrip (Nitinol)".155, SPOS, 269.982
"SMAStrip (Nitinol)".156, SPOS, 269.825
"SMAStrip (Nitinol)".157, SPOS, 269.669
"SMAStrip (Nitinol)".158, SPOS, 269.511
"SMAStrip (Nitinol)".159, SPOS, 269.354
"SMAStrip (Nitinol)".160, SPOS, 269.634
"SMAStrip (Nitinol)".161, SPOS, 263.052
"SMAStrip (Nitinol)".162, SPOS, 262.743
"SMAStrip (Nitinol)".163, SPOS, 262.583
"SMAStrip (Nitinol)".164, SPOS, 262.427
"SMAStrip (Nitinol)".165, SPOS, 262.268
"SMAStrip (Nitinol)".166, SPOS, 262.108
"SMAStrip (Nitinol)".167, SPOS, 261.953
"SMAStrip (Nitinol)".168, SPOS, 261.792
"SMAStrip (Nitinol)".169, SPOS, 261.635
"SMAStrip (Nitinol)".170, SPOS, 261.923
"SMAStrip (Nitinol)".171, SPOS, 255.332
"SMAStrip (Nitinol)".172, SPOS, 255.02
"SMAStrip (Nitinol)".173, SPOS, 254.859
"SMAStrip (Nitinol)".174, SPOS, 254.7
"SMAStrip (Nitinol)".175, SPOS, 254.54
"SMAStrip (Nitinol)".176, SPOS, 254.378
"SMAStrip (Nitinol)".177, SPOS, 254.217
"SMAStrip (Nitinol)".178, SPOS, 254.059
"SMAStrip (Nitinol)".179, SPOS, 253.896
"SMAStrip (Nitinol)".180, SPOS, 254.2
"SMAStrip (Nitinol)".181, SPOS, 247.598
"SMAStrip (Nitinol)".182, SPOS, 247.281
"SMAStrip (Nitinol)".183, SPOS, 247.12
"SMAStrip (Nitinol)".184, SPOS, 246.959
"SMAStrip (Nitinol)".185, SPOS, 246.797
"SMAStrip (Nitinol)".186, SPOS, 246.635
"SMAStrip (Nitinol)".187, SPOS, 246.473
"SMAStrip (Nitinol)".188, SPOS, 246.31
"SMAStrip (Nitinol)".189, SPOS, 246.149
"SMAStrip (Nitinol)".190, SPOS, 246.462
"SMAStrip (Nitinol)".191, SPOS, 239.85
"SMAStrip (Nitinol)".192, SPOS, 239.527
"SMAStrip (Nitinol)".193, SPOS, 239.365
"SMAStrip (Nitinol)".194, SPOS, 239.202
"SMAStrip (Nitinol)".195, SPOS, 239.038
"SMAStrip (Nitinol)".196, SPOS, 238.873
"SMAStrip (Nitinol)".197, SPOS, 238.712
"SMAStrip (Nitinol)".198, SPOS, 238.548
"SMAStrip (Nitinol)".199, SPOS, 238.384
"SMAStrip (Nitinol)".200, SPOS, 238.706
"SMAStrip (Nitinol)".201, SPOS, 232.087
"SMAStrip (Nitinol)".202, SPOS, 231.76
"SMAStrip (Nitinol)".203, SPOS, 231.594
"SMAStrip (Nitinol)".204, SPOS, 231.432
"SMAStrip (Nitinol)".205, SPOS, 231.267
"SMAStrip (Nitinol)".206, SPOS, 231.102
"SMAStrip (Nitinol)".207, SPOS, 230.936
"SMAStrip (Nitinol)".208, SPOS, 230.771
"SMAStrip (Nitinol)".209, SPOS, 230.606
"SMAStrip (Nitinol)".210, SPOS, 230.939
"SMAStrip (Nitinol)".211, SPOS, 224.309
"SMAStrip (Nitinol)".212, SPOS, 223.977
"SMAStrip (Nitinol)".213, SPOS, 223.814
"SMAStrip (Nitinol)".214, SPOS, 223.648
"SMAStrip (Nitinol)".215, SPOS, 223.48
"SMAStrip (Nitinol)".216, SPOS, 223.315
"SMAStrip (Nitinol)".217, SPOS, 223.148
"SMAStrip (Nitinol)".218, SPOS, 222.983
"SMAStrip (Nitinol)".219, SPOS, 222.815
"SMAStrip (Nitinol)".220, SPOS, 223.161
"SMAStrip (Nitinol)".221, SPOS, 216.521
"SMAStrip (Nitinol)".222, SPOS, 216.186
"SMAStrip (Nitinol)".223, SPOS, 216.017
"SMAStrip (Nitinol)".224, SPOS, 215.851
"SMAStrip (Nitinol)".225, SPOS, 215.683
"SMAStrip (Nitinol)".226, SPOS, 215.516
"SMAStrip (Nitinol)".227, SPOS, 215.347
"SMAStrip (Nitinol)".228, SPOS, 215.18
"SMAStrip (Nitinol)".229, SPOS, 215.009
"SMAStrip (Nitinol)".230, SPOS, 215.364
"SMAStrip (Nitinol)".231, SPOS, 208.717
"SMAStrip (Nitinol)".232, SPOS, 208.377
"SMAStrip (Nitinol)".233, SPOS, 208.21
"SMAStrip (Nitinol)".234, SPOS, 208.04
"SMAStrip (Nitinol)".235, SPOS, 207.872
"SMAStrip (Nitinol)".236, SPOS, 207.703
"SMAStrip (Nitinol)".237, SPOS, 207.534
"SMAStrip (Nitinol)".238, SPOS, 207.364
"SMAStrip (Nitinol)".239, SPOS, 207.195
"SMAStrip (Nitinol)".240, SPOS, 207.56
"SMAStrip (Nitinol)".241, SPOS, 200.895
"SMAStrip (Nitinol)".242, SPOS, 200.558
"SMAStrip (Nitinol)".243, SPOS, 200.389
"SMAStrip (Nitinol)".244, SPOS, 200.218
"SMAStrip (Nitinol)".245, SPOS, 200.048
"SMAStrip (Nitinol)".246, SPOS, 199.879
"SMAStrip (Nitinol)".247, SPOS, 199.706
"SMAStrip (Nitinol)".248, SPOS, 199.537
"SMAStrip (Nitinol)".249, SPOS, 199.366
"SMAStrip (Nitinol)".250, SPOS, 199.741
"SMAStrip (Nitinol)".251, SPOS, 193.068
"SMAStrip (Nitinol)".252, SPOS, 192.727
"SMAStrip (Nitinol)".253, SPOS, 192.556
"SMAStrip (Nitinol)".254, SPOS, 192.384
"SMAStrip (Nitinol)".255, SPOS, 192.214
"SMAStrip (Nitinol)".256, SPOS, 192.042
"SMAStrip (Nitinol)".257, SPOS, 191.871
"SMAStrip (Nitinol)".258, SPOS, 191.698
"SMAStrip (Nitinol)".259, SPOS, 191.527
"SMAStrip (Nitinol)".260, SPOS, 191.908
"SMAStrip (Nitinol)".261, SPOS, 185.235
"SMAStrip (Nitinol)".262, SPOS, 184.885
"SMAStrip (Nitinol)".263, SPOS, 184.713
"SMAStrip (Nitinol)".264, SPOS, 184.54
"SMAStrip (Nitinol)".265, SPOS, 184.366
"SMAStrip (Nitinol)".266, SPOS, 184.195
"SMAStrip (Nitinol)".267, SPOS, 184.022
"SMAStrip (Nitinol)".268, SPOS, 183.85
"SMAStrip (Nitinol)".269, SPOS, 183.676
"SMAStrip (Nitinol)".270, SPOS, 184.068
"SMAStrip (Nitinol)".271, SPOS, 177.383
"SMAStrip (Nitinol)".272, SPOS, 177.03
"SMAStrip (Nitinol)".273, SPOS, 176.858
"SMAStrip (Nitinol)".274, SPOS, 176.684
"SMAStrip (Nitinol)".275, SPOS, 176.509
"SMAStrip (Nitinol)".276, SPOS, 176.334
"SMAStrip (Nitinol)".277, SPOS, 176.162
"SMAStrip (Nitinol)".278, SPOS, 175.989
"SMAStrip (Nitinol)".279, SPOS, 175.815
"SMAStrip (Nitinol)".280, SPOS, 176.215
"SMAStrip (Nitinol)".281, SPOS, 169.521
"SMAStrip (Nitinol)".282, SPOS, 169.167
"SMAStrip (Nitinol)".283, SPOS, 168.992
"SMAStrip (Nitinol)".284, SPOS, 168.818
"SMAStrip (Nitinol)".285, SPOS, 168.643
"SMAStrip (Nitinol)".286, SPOS, 168.469
"SMAStrip (Nitinol)".287, SPOS, 168.294
"SMAStrip (Nitinol)".288, SPOS, 168.118
"SMAStrip (Nitinol)".289, SPOS, 167.943
"SMAStrip (Nitinol)".290, SPOS, 168.35
"SMAStrip (Nitinol)".291, SPOS, 161.65
"SMAStrip (Nitinol)".292, SPOS, 161.292
"SMAStrip (Nitinol)".293, SPOS, 161.114
"SMAStrip (Nitinol)".294, SPOS, 160.941
"SMAStrip (Nitinol)".295, SPOS, 160.766
"SMAStrip (Nitinol)".296, SPOS, 160.588
"SMAStrip (Nitinol)".297, SPOS, 160.415
"SMAStrip (Nitinol)".298, SPOS, 160.239
"SMAStrip (Nitinol)".299, SPOS, 160.064
"SMAStrip (Nitinol)".300, SPOS, 160.477
"SMAStrip (Nitinol)".301, SPOS, 153.768
"SMAStrip (Nitinol)".302, SPOS, 153.405
"SMAStrip (Nitinol)".303, SPOS, 153.232
"SMAStrip (Nitinol)".304, SPOS, 153.055
"SMAStrip (Nitinol)".305, SPOS, 152.879
"SMAStrip (Nitinol)".306, SPOS, 152.701
"SMAStrip (Nitinol)".307, SPOS, 152.526
"SMAStrip (Nitinol)".308, SPOS, 152.35
"SMAStrip (Nitinol)".309, SPOS, 152.174
"SMAStrip (Nitinol)".310, SPOS, 152.59
"SMAStrip (Nitinol)".311, SPOS, 145.877
"SMAStrip (Nitinol)".312, SPOS, 145.515
"SMAStrip (Nitinol)".313, SPOS, 145.338
"SMAStrip (Nitinol)".314, SPOS, 145.161
"SMAStrip (Nitinol)".315, SPOS, 144.983
"SMAStrip (Nitinol)".316, SPOS, 144.807
"SMAStrip (Nitinol)".317, SPOS, 144.629
"SMAStrip (Nitinol)".318, SPOS, 144.451
"SMAStrip (Nitinol)".319, SPOS, 144.274
"SMAStrip (Nitinol)".320, SPOS, 144.698
"SMAStrip (Nitinol)".321, SPOS, 137.978
"SMAStrip (Nitinol)".322, SPOS, 137.611
"SMAStrip (Nitinol)".323, SPOS, 137.435
"SMAStrip (Nitinol)".324, SPOS, 137.256
"SMAStrip (Nitinol)".325, SPOS, 137.079
"SMAStrip (Nitinol)".326, SPOS, 136.902
"SMAStrip (Nitinol)".327, SPOS, 136.725
"SMAStrip (Nitinol)".328, SPOS, 136.547
"SMAStrip (Nitinol)".329, SPOS, 136.369
"SMAStrip (Nitinol)".330, SPOS, 136.798
"SMAStrip (Nitinol)".331, SPOS, 130.066
"SMAStrip (Nitinol)".332, SPOS, 129.702
"SMAStrip (Nitinol)".333, SPOS, 129.524
"SMAStrip (Nitinol)".334, SPOS, 129.346
"SMAStrip (Nitinol)".335, SPOS, 129.167
"SMAStrip (Nitinol)".336, SPOS, 128.989
"SMAStrip (Nitinol)".337, SPOS, 128.811
"SMAStrip (Nitinol)".338, SPOS, 128.633
"SMAStrip (Nitinol)".339, SPOS, 128.454
"SMAStrip (Nitinol)".340, SPOS, 128.892
"SMAStrip (Nitinol)".341, SPOS, 122.144
"SMAStrip (Nitinol)".342, SPOS, 121.783
"SMAStrip (Nitinol)".343, SPOS, 121.604
"SMAStrip (Nitinol)".344, SPOS, 121.425
"SMAStrip (Nitinol)".345, SPOS, 121.248
"SMAStrip (Nitinol)".346, SPOS, 121.069
"SMAStrip (Nitinol)".347, SPOS, 120.89
"SMAStrip (Nitinol)".348, SPOS, 120.71
"SMAStrip (Nitinol)".349, SPOS, 120.532
"SMAStrip (Nitinol)".350, SPOS, 120.976
"SMAStrip (Nitinol)".351, SPOS, 114.219
"SMAStrip (Nitinol)".352, SPOS, 113.857
"SMAStrip (Nitinol)".353, SPOS, 113.678
"SMAStrip (Nitinol)".354, SPOS, 113.5
"SMAStrip (Nitinol)".355, SPOS, 113.32
"SMAStrip (Nitinol)".356, SPOS, 113.142
"SMAStrip (Nitinol)".357, SPOS, 112.962
"SMAStrip (Nitinol)".358, SPOS, 112.783
"SMAStrip (Nitinol)".359, SPOS, 112.604
"SMAStrip (Nitinol)".360, SPOS, 113.049
"SMAStrip (Nitinol)".361, SPOS, 106.292
"SMAStrip (Nitinol)".362, SPOS, 105.923
"SMAStrip (Nitinol)".363, SPOS, 105.745
"SMAStrip (Nitinol)".364, SPOS, 105.566
"SMAStrip (Nitinol)".365, SPOS, 105.387
"SMAStrip (Nitinol)".366, SPOS, 105.207
"SMAStrip (Nitinol)".367, SPOS, 105.027
"SMAStrip (Nitinol)".368, SPOS, 104.849
"SMAStrip (Nitinol)".369, SPOS, 104.669
"SMAStrip (Nitinol)".370, SPOS, 105.119
"SMAStrip (Nitinol)".371, SPOS, 98.3574
"SMAStrip (Nitinol)".372, SPOS, 97.9841
"SMAStrip (Nitinol)".373, SPOS, 97.8048
"SMAStrip (Nitinol)".374, SPOS, 97.6266
"SMAStrip (Nitinol)".375, SPOS, 97.447
"SMAStrip (Nitinol)".376, SPOS, 97.2677
"SMAStrip (Nitinol)".377, SPOS, 97.0879
"SMAStrip (Nitinol)".378, SPOS, 96.9058
"SMAStrip (Nitinol)".379, SPOS, 96.7277
"SMAStrip (Nitinol)".380, SPOS, 97.1849
"SMAStrip (Nitinol)".381, SPOS, 90.4117
"SMAStrip (Nitinol)".382, SPOS, 90.0391
"SMAStrip (Nitinol)".383, SPOS, 89.8604
"SMAStrip (Nitinol)".384, SPOS, 89.6805
"SMAStrip (Nitinol)".385, SPOS, 89.501
"SMAStrip (Nitinol)".386, SPOS, 89.3196
"SMAStrip (Nitinol)".387, SPOS, 89.1404
"SMAStrip (Nitinol)".388, SPOS, 88.9621
"SMAStrip (Nitinol)".389, SPOS, 88.7823
"SMAStrip (Nitinol)".390, SPOS, 89.2413
"SMAStrip (Nitinol)".391, SPOS, 82.4606
"SMAStrip (Nitinol)".392, SPOS, 82.0879
"SMAStrip (Nitinol)".393, SPOS, 81.9076
"SMAStrip (Nitinol)".394, SPOS, 81.7294
"SMAStrip (Nitinol)".395, SPOS, 81.5498
"SMAStrip (Nitinol)".396, SPOS, 81.37
"SMAStrip (Nitinol)".397, SPOS, 81.1899
"SMAStrip (Nitinol)".398, SPOS, 81.0119
"SMAStrip (Nitinol)".399, SPOS, 80.8318
"SMAStrip (Nitinol)".400, SPOS, 80.7434
"SMAStrip (Nitinol)".401, SPOS, 74.5064
"SMAStrip (Nitinol)".402, SPOS, 74.1316
"SMAStrip (Nitinol)".403, SPOS, 73.9529
"SMAStrip (Nitinol)".404, SPOS, 73.7739
"SMAStrip (Nitinol)".405, SPOS, 73.5952
"SMAStrip (Nitinol)".406, SPOS, 73.4155
"SMAStrip (Nitinol)".407, SPOS, 73.2356
"SMAStrip (Nitinol)".408, SPOS, 73.0537
"SMAStrip (Nitinol)".409, SPOS, 72.8718
"SMAStrip (Nitinol)".410, SPOS, 76.1828
"SMAStrip (Nitinol)".411, SPOS, 66.5472
"SMAStrip (Nitinol)".412, SPOS, 66.1725
"SMAStrip (Nitinol)".413, SPOS, 65.9922
"SMAStrip (Nitinol)".414, SPOS, 65.8133
"SMAStrip (Nitinol)".415, SPOS, 65.6334
"SMAStrip (Nitinol)".416, SPOS, 65.4554
"SMAStrip (Nitinol)".417, SPOS, 65.2757
"SMAStrip (Nitinol)".418, SPOS, 65.095
"SMAStrip (Nitinol)".419, SPOS, 64.9122
"SMAStrip (Nitinol)".420, SPOS, 65.3606
"SMAStrip (Nitinol)".421, SPOS, 58.5822
"SMAStrip (Nitinol)".422, SPOS, 58.2083
"SMAStrip (Nitinol)".423, SPOS, 58.0292
"SMAStrip (Nitinol)".424, SPOS, 57.85
"SMAStrip (Nitinol)".425, SPOS, 57.671
"SMAStrip (Nitinol)".426, SPOS, 57.4914
"SMAStrip (Nitinol)".427, SPOS, 57.311
"SMAStrip (Nitinol)".428, SPOS, 57.1304
"SMAStrip (Nitinol)".429, SPOS, 56.9483
"SMAStrip (Nitinol)".430, SPOS, 57.4019
"SMAStrip (Nitinol)".431, SPOS, 50.6146
"SMAStrip (Nitinol)".432, SPOS, 50.2406
"SMAStrip (Nitinol)".433, SPOS, 50.0616
"SMAStrip (Nitinol)".434, SPOS, 49.8826
"SMAStrip (Nitinol)".435, SPOS, 49.7044
"SMAStrip (Nitinol)".436, SPOS, 49.5256
"SMAStrip (Nitinol)".437, SPOS, 49.3449
"SMAStrip (Nitinol)".438, SPOS, 49.165
"SMAStrip (Nitinol)".439, SPOS, 48.9838
"SMAStrip (Nitinol)".440, SPOS, 49.4404
"SMAStrip (Nitinol)".441, SPOS, 42.6374
"SMAStrip (Nitinol)".442, SPOS, 42.2662
"SMAStrip (Nitinol)".443, SPOS, 42.091
"SMAStrip (Nitinol)".444, SPOS, 41.9118
"SMAStrip (Nitinol)".445, SPOS, 41.7334
"SMAStrip (Nitinol)".446, SPOS, 41.5556
"SMAStrip (Nitinol)".447, SPOS, 41.3778
"SMAStrip (Nitinol)".448, SPOS, 41.1992
"SMAStrip (Nitinol)".449, SPOS, 41.0205
"SMAStrip (Nitinol)".450, SPOS, 40.6942
"SMAStrip (Nitinol)".451, SPOS, 34.6609
"SMAStrip (Nitinol)".452, SPOS, 34.2918
"SMAStrip (Nitinol)".453, SPOS, 34.1172
"SMAStrip (Nitinol)".454, SPOS, 33.9378
"SMAStrip (Nitinol)".455, SPOS, 33.7605
"SMAStrip (Nitinol)".456, SPOS, 33.5835
"SMAStrip (Nitinol)".457, SPOS, 33.406
"SMAStrip (Nitinol)".458, SPOS, 33.2284
"SMAStrip (Nitinol)".459, SPOS, 33.0502
"SMAStrip (Nitinol)".460, SPOS, 33.5218
"SMAStrip (Nitinol)".461, SPOS, 26.6848
"SMAStrip (Nitinol)".462, SPOS, 26.3162
"SMAStrip (Nitinol)".463, SPOS, 26.1411
"SMAStrip (Nitinol)".464, SPOS, 25.9643
"SMAStrip (Nitinol)".465, SPOS, 25.7873
"SMAStrip (Nitinol)".466, SPOS, 25.6106
"SMAStrip (Nitinol)".467, SPOS, 25.4333
"SMAStrip (Nitinol)".468, SPOS, 25.2556
"SMAStrip (Nitinol)".469, SPOS, 25.078
"SMAStrip (Nitinol)".470, SPOS, 25.5506
"SMAStrip (Nitinol)".471, SPOS, 18.7086
"SMAStrip (Nitinol)".472, SPOS, 18.3406
"SMAStrip (Nitinol)".473, SPOS, 18.165
"SMAStrip (Nitinol)".474, SPOS, 17.9886
"SMAStrip (Nitinol)".475, SPOS, 17.812
"SMAStrip (Nitinol)".476, SPOS, 17.6356
"SMAStrip (Nitinol)".477, SPOS, 17.4588
"SMAStrip (Nitinol)".478, SPOS, 17.282
"SMAStrip (Nitinol)".479, SPOS, 17.1063
"SMAStrip (Nitinol)".480, SPOS, 17.5779
"SMAStrip (Nitinol)".481, SPOS, 10.7332
"SMAStrip (Nitinol)".482, SPOS, 10.5464
"SMAStrip (Nitinol)".483, SPOS, 13.1758
"SMAStrip (Nitinol)".484, SPOS, 15.3654
"SMAStrip (Nitinol)".485, SPOS, 17.1584
"SMAStrip (Nitinol)".486, SPOS, 9.66026
"SMAStrip (Nitinol)".487, SPOS, 15.0707
"SMAStrip (Nitinol)".488, SPOS, 15.5321
"SMAStrip (Nitinol)".489, SPOS, 9.13215
"SMAStrip (Nitinol)".490, SPOS, 9.60243
"SMAStrip (Nitinol)".491, SPOS, 6.7487
"SMAStrip (Nitinol)".492, SPOS, 6.77613
"SMAStrip (Nitinol)".493, SPOS, 10.7671
"SMAStrip (Nitinol)".494, SPOS, 14.6226
"SMAStrip (Nitinol)".495, SPOS, 14.4056
"SMAStrip (Nitinol)".496, SPOS, 1.67929
"SMAStrip (Nitinol)".497, SPOS, 1.50312
"SMAStrip (Nitinol)".498, SPOS, 1.32768
"SMAStrip (Nitinol)".499, SPOS, 1.15224
"SMAStrip (Nitinol)".500, SPOS, 1.62141
"SMAStrip (Nitinol)".501, SPOS, 6.45329
"SMAStrip (Nitinol)".502, SPOS, 6.75272
"SMAStrip (Nitinol)".503, SPOS, 9.66007
"SMAStrip (Nitinol)".504, SPOS, 14.6226
"SMAStrip (Nitinol)".506, SPOS, -6.29639
"SMAStrip (Nitinol)".507, SPOS, 14.1394
"SMAStrip (Nitinol)".508, SPOS, 11.7
"SMAStrip (Nitinol)".509, SPOS, -6.82259
"SMAStrip (Nitinol)".510, SPOS, 5.58899
"SMAStrip (Nitinol)".511, SPOS, 6.45255
"SMAStrip (Nitinol)".512, SPOS, 6.74587
"SMAStrip (Nitinol)".516, SPOS, -14.2702
"SMAStrip (Nitinol)".519, SPOS, 5.58899
"SMAStrip (Nitinol)".520, SPOS, 5.58899
"SMAStrip (Nitinol)".529, SPOS, -41.7984
"SMAStrip (Nitinol)".530, SPOS, -41.7984
"SMAStrip (Nitinol)".538, SPOS, -41.7984
"SMAStrip (Nitinol)".539, SPOS, -41.7984
"SMAStrip (Nitinol)".540, SPOS, -41.7984
"SMAStrip (Nitinol)".548, SPOS, -41.7984
"SMAStrip (Nitinol)".549, SPOS, -45.3986
"SMAStrip (Nitinol)".550, SPOS, -42.9523
"SMAStrip (Nitinol)".558, SPOS, -47.9297
"SMAStrip (Nitinol)".559, SPOS, -47.7112
"SMAStrip (Nitinol)".560, SPOS, -45.7619
"SMAStrip (Nitinol)".568, SPOS, -54.1561
"SMAStrip (Nitinol)".569, SPOS, -50.6042
"SMAStrip (Nitinol)".570, SPOS, -53.4731
"SMAStrip (Nitinol)".578, SPOS, -54.1561
"SMAStrip (Nitinol)".579, SPOS, -54.1561
"SMAStrip (Nitinol)".580, SPOS, -52.3403
"SMAStrip (Nitinol)".589, SPOS, -54.1561
"SMAStrip (Nitinol)".590, SPOS, -54.1561
"SMAStrip (Nitinol)".971, SPOS, -390.235
"SMAStrip (Nitinol)".972, SPOS, -390.235
"SMAStrip (Nitinol)".973, SPOS, -390.235
"SMAStrip (Nitinol)".981, SPOS, -390.235
"SMAStrip (Nitinol)".982, SPOS, -390.235
"SMAStrip (Nitinol)".983, SPOS, -390.235
"SMAStrip (Nitinol)".984, SPOS, -390.235
"SMAStrip (Nitinol)".991, SPOS, -390.235
"SMAStrip (Nitinol)".992, SPOS, -390.235
"SMAStrip (Nitinol)".993, SPOS, -390.235
"SMAStrip (Nitinol)".994, SPOS, -390.235
"SMAStrip (Nitinol)".995, SPOS, -390.235
** 
** INTERACTIONS
** 
** Interaction: ToVacuum
*Sradiate, amplitude=InstantVacuum
All-Surfaces, R, 4., 1.
** 
** OUTPUT REQUESTS
** 
*Restart, write, frequency=0
** 
** FIELD OUTPUT: F-Output-HFL
** 
*Output, field
*Element Output, directions=YES
HFL, 
** 
** FIELD OUTPUT: F-Output-1
** 
*Output, field, variable=PRESELECT
** 
** HISTORY OUTPUT: H-Output-1
** 
*Output, history, variable=PRESELECT
*End Step
