*Heading
** Job name: SMAHeatTransient_11 Model name: TowerScenario1_Model
** Generated by: Abaqus/CAE 2025
*Preprint, echo=NO, model=NO, history=NO, contact=NO
*Restart, read, step=13
*Elset, elset=Assembly._PickedSet223, internal, instance=SMAWire_(Nitinol)
  1,  2,  3,  4,  5,  6,  7,  8,  9, 10, 11, 12, 13, 14, 15, 16
 17, 18, 19, 20, 21
** ----------------------------------------------------------------
** 
** STEP: Heat_11
** 
*Step, name=Heat_11, nlgeom=YES, inc=200
*Coupled Temperature-displacement, creep=none, deltmx=5.
0.1, 30., 4e-05, 5.
** 
** LOADS
** 
** Name: SolarFlux   Type: Body heat flux Using Field: FluxField_11
*Dflux
SMAWire_(Nitinol).1, BF, 851078.
SMAWire_(Nitinol).2, BF, 814063.
SMAWire_(Nitinol).3, BF, 839339.
SMAWire_(Nitinol).4, BF, 841138.
SMAWire_(Nitinol).5, BF, 765060.
SMAWire_(Nitinol).6, BF, 820987.
SMAWire_(Nitinol).7, BF, 812690.
SMAWire_(Nitinol).8, BF, 834703.
SMAWire_(Nitinol).9, BF, 836659.
SMAWire_(Nitinol).10, BF, 789692.
SMAWire_(Nitinol).11, BF, 814887.
SMAWire_(Nitinol).12, BF, 828835.
SMAWire_(Nitinol).13, BF, 818416.
SMAWire_(Nitinol).14, BF, 789790.
** 
** OUTPUT REQUESTS
** 
*Restart, write, overlay, frequency=1
** 
** FIELD OUTPUT: F-Output-1
** 
*Output, field, time interval=0.01, time marks=NO
*Node Output
CF, NT, RF, U
*Element Output, directions=YES
LE, PE, PEEQ, PEMAG, S, SDV, TEMP
*Contact Output, variable=PRESELECT
** 
** HISTORY OUTPUT: H-Output-1
** 
*Output, history, variable=PRESELECT
*End Step
