*Heading
** Job name: SMAHeatTransient_12 Model name: TowerScenario1_Model
** Generated by: Abaqus/CAE 2025
*Preprint, echo=NO, model=NO, history=NO, contact=NO
*Restart, read, step=14
*Elset, elset=Assembly._PickedSet224, internal, instance=SMAWire_(Nitinol)
  1,  2,  3,  4,  5,  6,  7,  8,  9, 10, 11, 12, 13, 14, 15, 16
 17, 18, 19, 20, 21
** ----------------------------------------------------------------
** 
** STEP: Heat_12
** 
*Step, name=Heat_12, nlgeom=YES, inc=200
*Coupled Temperature-displacement, creep=none, deltmx=5.
0.1, 30., 4e-05, 5.
** 
** LOADS
** 
** Name: SolarFlux   Type: Body heat flux Using Field: FluxField_12
*Dflux
SMAWire_(Nitinol).1, BF, 806262.
SMAWire_(Nitinol).2, BF, 796310.
SMAWire_(Nitinol).3, BF, 828687.
SMAWire_(Nitinol).4, BF, 811635.
SMAWire_(Nitinol).5, BF, 817515.
SMAWire_(Nitinol).6, BF, 832279.
SMAWire_(Nitinol).7, BF, 827161.
SMAWire_(Nitinol).8, BF, 798472.
SMAWire_(Nitinol).9, BF, 826779.
SMAWire_(Nitinol).10, BF, 793638.
SMAWire_(Nitinol).11, BF, 812549.
SMAWire_(Nitinol).12, BF, 823401.
SMAWire_(Nitinol).13, BF, 814013.
SMAWire_(Nitinol).14, BF, 835461.
** 
** OUTPUT REQUESTS
** 
*Restart, write, overlay, frequency=1
** 
** FIELD OUTPUT: F-Output-1
** 
*Output, field, time interval=0.01, time marks=NO
*Node Output
CF, NT, RF, U
*Element Output, directions=YES
LE, PE, PEEQ, PEMAG, S, SDV, TEMP
*Contact Output, variable=PRESELECT
** 
** HISTORY OUTPUT: H-Output-1
** 
*Output, history, variable=PRESELECT
*End Step
